BEGIN IONS
TITLE=mavacurine.mgf
PEPMASS=309.1958618
CHARGE=1+
RETENTION_TIME=198.717
PRECURSOR_MZ=309.1958618
SMILES=C[N+]1(CC2)[C@]3([H])C4=C2C5=CC=CC=C5N4[C@@]([H])(CO)[C@@](/C(C1)=C\C)([H])C3
INCHI=InChI=1S/C20H25N2O/c1-3-13-11-22(2)9-8-15-14-6-4-5-7-17(14)21-18(12-23)16(13)10-19(22)20(15)21/h3-7,16,18-19,23H,8-12H2,1-2H3/q+1/b13-3-/t16-,18?,19-,22?/m0/s1
COMPOUND_NAME=mavacurine.mgf
IONMODE=positive
SKELETON=Pleiocarpamane
105.069664717987 0.0999477074342775 
108.080710793103 0.1450923267316188 
120.080769693871 0.24514243600284572 
122.096228144558 0.09778782566588706 
129.070002746529 0.09719182176932764 
130.065112842557 0.3813132711644663 
131.072982830118 0.13441811119110605 
132.080724140149 0.10280530267206846 
143.072963098494 0.12456694442432736 
144.080790628425 0.3830874198216159 
146.096438909354 0.1287079085671766 
156.080789399286 0.10813669482584054 
167.073033064573 0.2634348938031357 
168.08090284014 0.18571262732334484 
180.080813953739 0.39696749269750115 
181.088732810505 0.21392025969489256 
182.096497272273 0.10246332420254724 
192.080826351992 0.13944590115746558 
193.088582932391 0.4374635230065988 
194.096407017463 0.3554078607122013 
204.080820383028 0.23402272188307197 
205.088540466138 0.17486390797644455 
206.096509334616 0.43842506010272486 
207.104335664857 0.5744441296713627 
208.112033183126 0.22944383856542994 
217.088540413226 0.31124868824826646 
218.096506103116 0.4588195157417308 
219.104235510303 0.16176573853575135 
220.112165969133 1.0 
222.127840735709 0.4204556588863281 
230.096337865779 0.15174782487067087 
231.104184667244 0.1034763195973934 
232.112098086509 0.5590817240855368 
234.127803799507 0.32828832551607395 
246.127688367538 0.11746591220529075 
END IONS

BEGIN IONS
TITLE=Pleiocarpamine.mgf
PEPMASS=323.1755778
CHARGE=1+
RETENTION_TIME=250.709
PRECURSOR_MZ=323.1755778
SMILES=C/C=C(C1)\[C@]2([H])C[C@@](N1CC3)([H])C4=C3C5=C(N4[C@@H]2C(OC)=O)C=CC=C5
INCHI=InChI=1S/C20H22N2O2/c1-3-12-11-21-9-8-14-13-6-4-5-7-16(13)22-18(14)17(21)10-15(12)19(22)20(23)24-2/h3-7,15,17,19H,8-11H2,1-2H3/b12-3-/t15-,17-,19-/m0/s1
COMPOUND_NAME=Pleiocarpamine.mgf
IONMODE=positive
SKELETON=Pleiocarpamane
103.054151518913 0.07018537048831784 
105.070070698416 0.05154920374648406 
106.065671973566 0.07462943601963226 
107.072879651417 0.076479195642487 
108.081591526779 0.03637859690869938 
115.054366096602 0.08407979370071633 
117.057172855204 0.10406967113552969 
117.0700315102 0.046821268628181645 
118.064899273646 0.109387584806208 
119.072782243955 0.059305828743815604 
120.081026816946 0.19151901439830862 
121.089161125601 0.07664576129067299 
122.096928260675 0.11923465732846966 
127.054762886042 0.0457134611471574 
128.050011667634 0.058272008405025826 
128.062085871783 0.11565917058197724 
129.069464803183 0.1843458825939168 
129.076833734224 0.0402933760430282 
130.065184776046 0.3519636992814492 
130.073166122398 0.04374785679137382 
132.080742365252 0.09070199422100429 
134.060661011194 0.058424711597416995 
142.064967464996 0.07693265737873121 
143.072957735756 0.24372745493148082 
143.082033931664 0.031584619213471825 
144.080818243061 0.23296756806857621 
144.089204565877 0.04559550867241179 
146.060639395709 0.04176687672926029 
148.07519258575 0.13316407445949258 
150.09103912523 0.030300734223755166 
152.107059027663 0.10064496899592855 
154.0646935853 0.1365767516618058 
155.072685930819 0.08998460537803836 
156.080441396329 0.11350019442567143 
156.089752133579 0.025202352672224797 
157.089229468076 0.024991883842888925 
158.096594861673 0.06645037092202626 
165.070021621672 0.0321504938466099 
167.073171615772 0.1861274918980296 
167.080711607824 0.03088652431482853 
168.08075252617 0.22482633423434795 
168.090585196251 0.028961507500183073 
170.097132073604 0.04981780193333969 
178.064550543723 0.03211252747157723 
178.077296111771 0.035139190675782556 
179.072978145523 0.10167943787066194 
179.085247535833 0.04378806601987817 
180.080895402232 0.6932073696381953 
180.090508052636 0.09616020783415206 
180.101434834099 0.038741186328970396 
182.097084995264 0.0660374426822582 
191.073109111107 0.1590345515630662 
192.080663210403 0.09141581611628033 
193.089013233703 0.2770994121832341 
193.099011294862 0.05415372409605574 
194.096727814256 0.16484786562767603 
194.107311003653 0.024694227462632844 
204.080700612505 0.5677164752179553 
204.090049496421 0.10920091454376983 
205.088784313063 0.2733162858454598 
205.098337135346 0.04291097520079618 
206.09638983607 0.4923198481993535 
206.105968733191 0.1120563372365289 
208.111805666331 0.17928416764329874 
208.121103652161 0.02875719165561228 
216.080838916644 0.03169114124221115 
217.088634442767 0.5876562532511242 
217.098417969792 0.06939431877108924 
218.096114706027 1.0 
218.106984441524 0.13615101483715125 
218.129981783332 0.031180446208942607 
219.104229056774 0.36209518183731854 
219.113771824977 0.06264078972221855 
220.111880670555 0.7605937670831798 
220.120995330085 0.13471602097257154 
220.135449856108 0.029271534703563674 
222.128606097937 0.02614947456428518 
230.097224628383 0.10905639911766685 
231.104192953966 0.07011092396645663 
232.100053439146 0.045280698516447004 
232.112311181385 0.988708718998293 
232.122372462658 0.14841377566006772 
232.148341810685 0.035469457605070254 
233.107532192042 0.12894386191805046 
234.092557739463 0.036058895710826475 
234.127767841763 0.9183714830098445 
234.137606928751 0.19680533896406652 
234.151489055377 0.032443740182449374 
234.163704022361 0.03350779850961035 
238.08694267838 0.05726788560798759 
246.091232732134 0.046607062610470665 
246.127193838417 0.02603162747663041 
247.123706503189 0.11545142290137146 
261.103076422875 0.031166313529837925 
262.085703598483 0.04438604318222536 
263.153777595547 0.0351511885907395 
264.102338091598 0.04660698154347771 
294.150286748984 0.025902352645202468 
END IONS

BEGIN IONS
TITLE=Voacalgine_A.mgf
PEPMASS=475.1853231
CHARGE=1+
RETENTION_TIME=1170.817
PRECURSOR_MZ=475.1853231
SMILES=O=C(OC)[C@H]1N2[C@@]3(OC(C4=C(O)C(O)=CC=C45)=O)[C@@]5(CCN(C/6)[C@@]3([H])C[C@@]1([H])C6=C/C)C7=C2C=CC=C7
INCHI=InChI=1S/C27H26N2O6/c1-3-14-13-28-11-10-26-16-6-4-5-7-18(16)29-22(25(33)34-2)15(14)12-20(28)27(26,29)35-24(32)21-17(26)8-9-19(30)23(21)31/h3-9,15,20,22,30-31H,10-13H2,1-2H3/b14-3-/t15-,20-,22-,26-,27-/m0/s1
COMPOUND_NAME=Voacalgine_A.mgf
IONMODE=positive
SKELETON=Pleiocarpamane
103.053676359749 0.14619453131633828 
104.05067880609 0.04219504367261585 
105.068493761303 0.220402286030088 
106.06539952318 0.3612082972932909 
107.072021909838 0.08554769590791404 
107.076303120543 0.060394802174347936 
108.080050195898 0.224578795646123 
111.079675406082 0.025668321270413297 
115.053580612067 0.10332841605632465 
117.057847269071 0.27442389422433433 
118.063760521728 0.14131960525539378 
119.072222260581 0.120989739921621 
120.042552113517 0.028120254048118312 
120.08008778117 0.3600514659002431 
121.086256196642 0.1774019506957827 
122.058167408846 0.037383327408614206 
122.095099580769 0.21609598908508423 
127.053498035633 0.03744305433423188 
128.052705178292 0.043153380184189204 
129.066339737473 0.029035057546533034 
130.064168848184 0.14057337848592963 
131.070760180153 0.05277494174825749 
132.079747862513 0.3720941411483977 
133.085256671874 0.09840366478658778 
134.057621591669 0.02610514241633553 
134.0952169655 0.4815420772592969 
135.100086056486 0.06137302847175348 
137.024176512243 0.04347256663150214 
139.053493771542 0.07891322901030326 
140.051646371146 0.03234361260108602 
141.068045306274 0.02912267622681264 
142.065533076882 0.02792733176076416 
143.073162781439 0.04993337929188332 
144.079060040654 0.08336258273618401 
146.057374198922 0.03552027909025098 
146.094322245105 0.056759029919591725 
147.006703309622 0.06517793586623472 
148.073773654868 0.04086522007573086 
148.109968515294 0.0444041627508351 
150.090305245538 0.1222913263551176 
151.05304631175 0.0810618439932703 
152.059148571543 0.05066101155823951 
153.066553706879 0.040345092101797715 
154.064530436393 0.05696331039723443 
156.077305108377 0.03429094064870637 
158.094121816429 0.08312534450922457 
160.077326779883 0.02818247367337863 
163.05174829814 0.049847948200204655 
164.05535020448 0.04453533171470966 
164.103060883555 0.028021423976258904 
165.067834202386 0.10783245949722882 
166.066984684633 0.0837674017635994 
166.084518320645 0.039327892186422846 
167.073274464889 0.13326026979299943 
168.07804843566 0.060198926642382515 
176.058181176759 0.0781015760712348 
177.064434289655 0.08330524488759104 
178.0688008038 0.1452308985376258 
179.072354230101 0.10031190407999667 
180.079507226179 0.18603138326120527 
180.096108691088 0.03584430125973441 
181.082066250121 0.06901453451136899 
182.094662522952 0.026012498039085875 
189.068205328442 0.12080698992126121 
190.06417268017 0.26328855013247865 
191.071642246002 0.38857416716918836 
192.078237884863 0.24912854817516253 
192.094722255001 0.036209455851727544 
193.085737541943 0.15585921140309342 
194.092335094096 0.12779345709519896 
201.059963750166 0.03698628007754426 
202.064751607199 0.08954997560550869 
203.071716897073 0.18905759546593479 
204.079301569041 0.7184605133061516 
205.082066739997 0.17753884768770445 
206.075687328655 0.09434778916827018 
206.089906852274 0.10186388305611885 
207.075683098635 0.10998611169079012 
208.084506945833 0.09386781495878843 
208.102455074854 0.024861619189757482 
214.0630942465 0.07912712336416586 
215.0730062419 0.09915455457385919 
216.078795538646 0.21246205901020251 
217.08702616859 0.21614938351738341 
218.090199007567 0.19236551727115592 
219.076307175319 0.09057894820164385 
219.098052013956 0.035281054763114376 
220.075572348262 0.3765404149798008 
221.086291936702 0.1417517115721998 
222.056304039469 0.10111820318380495 
222.087253314129 0.07676490186794162 
223.066239841751 0.03644888166728792 
225.07281130862 0.025287159862354622 
226.07266072987 0.034828022434296786 
227.072359422873 0.058374477749201605 
228.080203814169 0.17840136206174467 
229.082301596683 0.09426230050847044 
230.089566502595 0.11740626830486349 
231.083444301577 0.05723143392115182 
231.093781694313 0.05568290903229428 
232.080875220885 0.18260276989014565 
232.090959263661 0.05869645625038678 
233.090341672899 0.13198381184435307 
234.08640415819 0.14554467358155748 
234.093291529006 0.11996315640251055 
235.062052468198 0.06672810144654297 
235.069967110715 0.08616321425847223 
235.113321281821 0.03413743525385383 
236.069506222394 0.28922195245161036 
237.07318913057 0.051538378507517676 
238.066982220853 0.03924997373454476 
239.069325840051 0.057452495506088545 
240.080953894477 0.09975956674232078 
241.085893063522 0.19198355278780824 
242.090943606477 0.13943554457283736 
243.084560327899 0.11529084134369752 
244.076245374454 0.2755439971561348 
245.096442200717 0.06882755325411 
246.098160995148 0.09272134582753455 
247.09493972301 0.024787442665749417 
247.114552824087 0.04675521603157036 
248.0707066175 0.2707270421931151 
249.07713535381 0.24086038435356039 
249.133703301428 0.14347674032028024 
250.082574246946 0.22259479670537644 
251.065278842834 0.12833687137410787 
252.074193630433 0.04733127143513008 
252.08146386708 0.07356486272161927 
253.085513309193 0.08874761991799421 
254.093824729707 0.21757839698688455 
255.097776689448 0.1166550043248051 
256.085438933688 0.09875068542044159 
256.095812972552 0.029069281794513468 
257.089322733226 0.07528039272972199 
258.089566555421 0.11507775294353 
259.084560318198 0.0960360606710428 
260.070797985237 0.30894191232663 
261.070802696747 0.04348606635589476 
261.081772173516 0.02843950669877049 
261.128259563852 0.04595703403283397 
261.135606344545 0.05296946442937758 
262.085094880648 0.2663226779538563 
263.081075119936 0.05800486162782498 
263.147271108048 0.030227840231193574 
264.067463371195 0.4839668465190716 
265.078479062079 0.34618819882301977 
266.085471576813 0.22424737597308114 
267.098001741932 0.11695245880641136 
268.104536700905 0.14748851875785263 
269.090072970735 0.03318810815322907 
269.101102213217 0.07080378049851115 
270.088945180102 0.17099176919788897 
271.086517750295 0.10951454242698563 
272.073695429161 0.34557250776809834 
273.078602782127 0.12840601068752167 
274.083907386522 0.09656180153678098 
275.083872695094 0.0908357883738301 
276.070564188197 0.10127818499227867 
277.076863611368 0.14355960963057096 
277.08609958278 0.02701032052490613 
278.085101679987 0.46750437877520945 
279.082759401871 0.026423807872152715 
279.095959994831 0.15456741155017997 
280.09853331117 0.17092959562712554 
281.095167566881 0.1257898849932861 
282.093965598696 0.18003779347148724 
283.098645797258 0.12879738755866552 
284.085794809157 0.037125191953703715 
284.102065092088 0.06827351765686233 
285.091926977268 0.08489927737616018 
286.085961214434 0.2329352977495182 
287.087555824188 0.1188511993598425 
288.063231171575 0.03667604547305884 
288.077004782535 0.0553691339883626 
288.088373361352 0.027565403861957403 
289.088070490021 0.12739278297250115 
290.081833186559 0.21277885638049074 
291.089741288295 0.07888375413231169 
292.097274127053 0.13910124649374161 
293.090766172266 0.1677210651829443 
294.093551076874 0.22025750220557863 
295.10113967364 0.10569078147285159 
296.102314403111 0.17254461169582733 
297.10313211642 0.10863118839311543 
298.106218977468 0.15617379240072016 
299.097390228138 0.11733871211477932 
300.093095363897 0.13244260098527838 
301.074954963691 0.25878885308471583 
302.082026424152 0.11882814332735103 
303.080822896359 0.06168691865192731 
304.084556708701 0.04364017621601862 
304.096349410307 0.03342960642114823 
305.094376097836 0.13324130109710447 
306.09127438012 0.07678464773347111 
306.100667462445 0.03710720191586707 
307.098416801436 0.13899304721017688 
308.103375393435 0.2530884865197049 
309.100102443268 0.13641471498742858 
310.089503914005 0.25757125853987095 
310.09787390305 0.05951907591652046 
311.091724055653 0.05154448072835187 
311.099978552558 0.11129451994663435 
312.103188874873 0.19013239228644746 
313.109236173564 0.08686272449768218 
314.086610747347 0.17084312830926748 
315.091728031673 0.11559914741612685 
316.081574564596 0.031094211669345985 
316.089121787745 0.14695350942462101 
317.08745469473 0.0950247902721389 
318.096939751117 0.05905752350578344 
319.106301924705 0.04712517756167345 
320.100655527759 0.06360304477792378 
321.100695322832 0.06792157494865643 
321.14909518915 0.03707424416655033 
322.103108481262 0.1740144985312933 
323.111150084028 0.09523088414559552 
324.103314849986 0.24609499603499566 
325.107223207976 0.18660130765987026 
326.113594414075 0.4434126957855818 
327.113689995638 0.1347834934926435 
328.105196462204 0.1684893981109021 
329.103000829484 0.12074501783892153 
330.101051014366 0.06779584617222367 
332.09444773501 0.0496822959318048 
334.096604132239 0.029966797586168683 
335.100388179216 0.06759401233972676 
336.099362032451 0.23313318816572134 
337.109542052079 0.09881645699877237 
338.090078065476 0.10162877484963927 
338.103525425037 0.0728926685558605 
339.096102336468 0.08916850045119014 
339.108529749151 0.08044082788714921 
340.102424399436 0.036170223177213384 
340.119139527499 0.18202421027331905 
341.115237841393 0.13523333079074132 
342.114916401973 0.15578728003580739 
343.116351229173 0.10670343350666135 
344.117277928282 0.0780000259056545 
346.103110827445 0.03102550411684026 
349.105438599338 0.027710915923198368 
350.112319058485 0.13240636185306026 
351.127364504901 0.0633481907059147 
352.096086625036 0.03130260826764571 
352.110735826661 0.12239886360528994 
353.107355133607 0.22380781458459564 
354.110624140604 0.6262484726457876 
355.119012864457 0.22951713299243412 
356.117239597952 0.12302572287570035 
357.108936645261 0.039911345093541 
358.128753043922 0.02460796829147891 
364.116511354171 0.03023342433893807 
365.104781460736 0.034788501919177234 
366.104229864479 0.028471917550936993 
367.117941422943 0.06619861865293475 
368.124585802175 0.29210007066486865 
369.144840920936 0.23826938714417506 
370.132303619656 0.1266448291594047 
371.141452095958 0.08322890955904258 
372.124039176696 0.0979642761024655 
379.140743954205 0.07518120285710585 
380.130124094045 0.04980980931999097 
381.123799510282 0.04861452242206356 
382.121173835219 0.04303248712992693 
383.135704591306 0.09928727787700284 
384.135316133056 0.04061744688261428 
385.127150436154 0.04564607982683509 
386.135246524794 0.12992071430524632 
387.134017959887 0.04875861542911997 
388.142616202288 0.026911366681586404 
396.124242385105 0.03340896824974202 
397.15179431594 0.41588678653308947 
398.154025637254 0.09948741344992797 
400.14910428137 0.07576370589022623 
401.164155364563 0.03921741896207556 
414.132059555295 0.0573281195805011 
415.162573426072 0.44886468469220486 
416.164158611246 0.07088984483952167 
425.148033108838 0.04792390645756006 
428.148589367359 0.08222992995398867 
429.162634588423 0.21110270296720487 
430.151366994776 0.0249815422211796 
457.17331390207 0.38670809652446864 
458.17636603091 0.046276796161357686 
475.183811874262 1.0 
476.188144727413 0.10094817573820321 
END IONS

BEGIN IONS
TITLE=2_7_dihydroxyapogeissoschizine.mgf
PEPMASS=369.1810242
CHARGE=1+
RETENTION_TIME=1049.95
PRECURSOR_MZ=369.1810242
SMILES=C/C=C1[C@]2([H])C[C@@]3([H])[C@@]4(O)N(C=C2C(OC)=O)C5=CC=CC=C5[C@@]4(O)CCN3C\1
INCHI=InChI=1S/C21H24N2O4/c1-3-13-11-22-9-8-20(25)16-6-4-5-7-17(16)23-12-15(19(24)27-2)14(13)10-18(22)21(20,23)26/h3-7,12,14,18,25-26H,8-11H2,1-2H3/b13-3-/t14-,18-,20-,21-/m0/s1
COMPOUND_NAME=2_7_dihydroxyapogeissoschizine.mgf
IONMODE=positive
SKELETON=Apogeissoschizane
102.037889558739 0.030795270455285993 
103.054453767337 0.17810520422269124 
104.052422965487 0.08578678805314721 
105.034566320448 0.032515716792300725 
105.06979607376 0.15039969527601335 
106.065873051488 0.292218371246212 
107.07534513982 0.07435994450107312 
108.081018415305 0.14577090936348075 
110.096519550195 0.03332601438260504 
115.054960798201 0.3143437496653696 
116.053209844992 0.22473766252838304 
117.061198380618 0.3432738145925872 
118.06503022035 0.2649425149621211 
119.070690319672 0.06201673636327016 
120.045231530619 0.2435438644977689 
120.07877438692 0.23640243146897258 
121.086948592805 0.10424721804235236 
122.095504428096 0.04967116732844871 
127.054388300293 0.07348019166608452 
128.055249379257 0.1401045015626283 
129.067851994714 0.09101059140215358 
130.065432435789 0.6777747806226955 
130.165515528915 0.03452749170244131 
131.072520132946 0.172351907252951 
132.044994972287 0.15551412229446557 
132.078549977267 0.2620141358071591 
133.075109362307 0.052109076501731924 
134.060403494803 0.04394127026457854 
134.093696091299 0.05920563718978808 
135.070971531782 0.049431411352396266 
136.041165432591 0.040258454484404065 
139.054616410941 0.03296336938248011 
140.051795786703 0.05697787844592807 
141.062071026493 0.029658348116559985 
142.064940017801 0.14590919775903452 
143.072629379247 0.11913173040493719 
144.044252125496 0.21091091361615488 
144.078132681789 0.31900430315549444 
145.053658864582 0.03162079404666418 
145.071974172552 0.03718746287196239 
146.060773626337 0.22766466491834508 
146.077790275821 0.027151580296759147 
146.09190391038 0.14597283489681148 
147.065254554975 0.03211007083200968 
147.095049076852 0.026565047811988974 
148.074005285885 0.02506407821248991 
150.09121361073 0.0477425592225663 
152.058980750246 0.047071263905963896 
153.062705201826 0.04110875474665229 
154.065207044701 0.16435795074138798 
155.070766999051 0.07602333157753303 
156.080068779706 0.10970853884950378 
157.084133855898 0.07547711281161419 
158.063091852135 0.2867498096749866 
159.069135436275 0.06891055565725486 
160.076752920959 0.35456726491355195 
161.080374944549 0.06506520002100842 
165.069171920886 0.06007672150440641 
166.067316361198 0.0966401324957843 
167.073322702358 0.24181995075260607 
168.078533142469 0.1362642450560114 
169.07758954102 0.13238299154717284 
170.068967294411 0.10301205587218319 
171.092763690695 0.03669878268478354 
172.089660717661 0.033286511425364804 
172.104487525836 0.09956591109463526 
173.075501138899 0.030726819739138732 
174.087068174219 0.05289143596079585 
176.072429410711 0.06883921883373727 
178.070053014994 0.06387883652139417 
179.073371516924 0.08741177868349652 
180.080412162847 0.24726546425790583 
181.083394653703 0.1285219815829636 
182.073929560423 0.13452151552251546 
183.073594363214 0.14964859348157863 
184.076740213699 0.2016030133816459 
185.075815152509 0.13501138890602762 
186.086588936642 0.05194600633617848 
187.087181648277 0.05807363041202498 
190.067343867421 0.02634314388876963 
190.084926325964 0.029242967917806114 
191.07421252058 0.13558397017213134 
192.079432027174 0.1786302616006474 
193.087304197668 0.17980739567563214 
194.092099712012 0.17845306684602008 
195.081911896239 0.08385549270595004 
196.076899183894 0.12814434004259814 
197.080338166694 0.05296756596616524 
198.083779018256 0.03432706531322169 
199.086909572225 0.02612872038871685 
200.070122587782 0.027924394185156534 
202.071015420876 0.02657667382754438 
203.075436501911 0.040031170979425525 
204.082011191893 0.3201342192901094 
205.085441901365 0.1977851930453991 
206.094563212519 0.24004402588522167 
206.112362017893 0.07671079623419079 
207.095243959055 0.15864723150405458 
207.110644284505 0.03094854009369141 
208.081696335424 0.06749881062801391 
208.095752887011 0.1289204275722177 
209.080011169004 0.025702754396852004 
209.091129881556 0.06295502720640614 
209.101788873486 0.02639821448876891 
210.08851364623 0.13024518144997832 
211.086914285868 0.07146827907944393 
212.074866792354 0.06285141289233341 
216.082152766166 0.0515509257724799 
217.087975112604 0.17273944110479783 
218.094912141091 0.2559693215964967 
219.095864757587 0.23397687748678178 
220.086539828386 0.05571462007150001 
220.098664280833 0.20890318231581054 
221.089281740259 0.07156286793407234 
221.101225472201 0.10795805863897093 
222.092085653819 0.5200403443136292 
222.220741660265 0.02855678314268538 
223.096103764938 0.17513368643106308 
224.103148261127 0.04228842818819256 
225.077540142852 0.04886977791760724 
226.084194199512 0.032918104408758475 
227.060138309707 0.0796816001476708 
228.075788153972 0.06768069658190044 
229.089116578739 0.039311632797397814 
230.09586107847 0.14802477565104413 
231.099580706264 0.13011158425368374 
232.10100616564 0.12609566273132838 
232.121403824786 0.03812696220882058 
233.095619241326 0.1368353985658188 
234.098426967486 0.1474431689254961 
234.117383937551 0.04419724657198263 
235.09338543304 0.290709691762713 
236.102095682565 0.16846193423244588 
237.09076558062 0.0630629247893677 
237.102039849349 0.11270534832409457 
238.095545453391 0.09961970691222716 
239.092838593746 0.0572544042457393 
240.070833591267 0.12747701694797717 
241.077353376278 0.061011646921986885 
241.086941999379 0.03353650135458379 
242.083247090478 0.15497458338836145 
243.094048105041 0.09531262508802373 
244.106770581002 0.11664029566793245 
245.108945761913 0.11011769301097997 
246.102785868411 0.1186024917406848 
246.116311767035 0.03376422338471047 
247.106564737209 0.1509748261069318 
248.106640211406 0.22045699419566075 
249.10696549781 0.07033749609279193 
249.124256203393 0.06287017768937021 
250.092207567204 0.05278914742042681 
250.103654262155 0.03375185799535877 
250.114747945201 0.02538383953243021 
251.093216771738 0.04192242286164175 
251.112571019499 0.032642613732262044 
252.10280782437 0.08159887288838669 
253.091958649883 0.04084831160169271 
254.085364913832 0.08698589937683537 
255.09308209776 0.04166876155908948 
256.102632509485 0.04354233985800964 
257.106090962005 0.07645874625660146 
258.103501863022 0.06947548822891421 
259.117988742588 0.10025801595925593 
260.113799840925 0.10318675205329203 
261.106620217676 0.07954473950841331 
262.11698024056 0.13421781136177866 
263.108566468139 0.14117485986316997 
264.109110031801 0.12699907552779818 
265.115200093294 0.053869754971523916 
265.1330563176 0.3933723042813822 
266.114718425349 0.03840685853331695 
266.130925570876 0.11759684139514227 
267.105758975602 0.025241813474857978 
268.099320406706 0.10458421951957023 
269.095626081066 0.08422166120464898 
270.102665411387 0.041521284531943245 
273.134712179748 0.09784979901780566 
274.129932785142 0.08214631544541663 
275.133385503755 0.0440332636622255 
275.146011771642 0.05653644679389676 
276.109134028375 0.13320374745234737 
277.120736433116 0.06169074900605216 
278.102134593886 0.05077559291404551 
279.114916954412 0.06484649835119645 
280.098837239317 0.04157959307925731 
280.114461881341 0.12156421920342417 
281.11456385972 0.053725296629118374 
282.113280016158 0.18031144463951448 
283.117524279852 0.05813935819295005 
284.126803781318 0.05426213299651882 
286.10677756311 0.028872113318977585 
290.118274431487 0.07775142660899212 
291.145606579672 0.129044489396105 
292.146368830258 0.07643722792956471 
293.128021629794 0.06536507983452304 
294.131474556038 0.0766522582260434 
295.119838564117 0.0763052624547516 
296.126772783427 0.08638348820239874 
297.129256092899 0.05982064321440973 
301.133793091502 0.08823865354422654 
302.130672247277 0.06853495376874122 
303.11712283933 0.026447344602749757 
304.129213190946 0.030204342520775133 
305.13813364179 0.02638072447413951 
306.139850802441 0.033278398710124175 
307.14226027807 0.03155931893985016 
308.129056013895 0.06762445318208635 
309.142193794167 0.03324213370019872 
319.143143965411 0.19271298682027965 
320.146557184479 0.07131265364314966 
322.143226920878 0.1329194709754992 
323.14515019414 0.09717146180318481 
324.141795499573 0.026583460769081326 
333.15973605685 0.09673869867152377 
334.148021636855 0.11938893050345237 
335.14893622236 0.031216183209687942 
337.153508933907 0.045058683333341835 
351.170752159782 0.5743868679055172 
352.173858974717 0.21933671541604563 
369.181024243714 1.0 
369.34718566092 0.03399121623930012 
370.183575951016 0.378359395834725 
END IONS

BEGIN IONS
TITLE=Cinchonidine.mgf
PEPMASS=295.1802717
CHARGE=1+
RETENTION_TIME=131.296
PRECURSOR_MZ=295.1802717
SMILES=C=C[C@H]1CN2CC[C@H]1C[C@H]2[C@H](O)C3=CC=NC4=CC=CC=C34
INCHI=InChI=1S/C19H22N2O/c1-2-13-12-21-10-8-14(13)11-18(21)19(22)16-7-9-20-17-6-4-3-5-15(16)17/h2-7,9,13-14,18-19,22H,1,8,10-12H2/t13-,14-,18-,19+/m0/s1
COMPOUND_NAME=Cinchonidine.mgf
IONMODE=positive
SKELETON=Cinchona
101.038551183093 0.06521754982551348 
103.054340291217 0.060225259196841185 
105.069702856096 0.06342701355151223 
106.065305739026 0.06181610812669769 
108.080739043725 0.16767308269968556 
115.054278452498 0.23257799807497603 
120.080686503553 0.03735252839553035 
122.096485984975 0.04037838350786741 
127.054367453411 0.05200754740674728 
128.049582290129 0.256555748279929 
129.057316805533 0.07969377991796173 
130.065238792617 1.0 
130.073204426616 0.1041429398069696 
134.096265053041 0.06356785852144176 
136.112158041787 0.03995510655771041 
142.065285568731 0.3091597748478282 
142.073352298506 0.03762636983149262 
143.073208121118 0.2420511422783921 
144.080946983461 0.08896022306875075 
154.065251540579 0.3204654020110721 
155.073093160549 0.059460058606919095 
156.080906708971 0.2750810001277166 
158.060013120318 0.10089344514359551 
159.067847006215 0.05018215664044077 
166.06528025664 0.10087853298619164 
167.073023805204 0.40596607591215667 
167.081641592003 0.04843077013087737 
168.080914201203 0.20766541970588087 
169.076125578675 0.043834379443769396 
172.075597151869 0.05010809530366931 
180.080666878866 0.1517160753770314 
181.076061286896 0.06605041878903292 
183.068054993095 0.04009227700081553 
184.075659826877 0.07874375419627395 
192.08060643772 0.05432934890952173 
193.088717628111 0.04454454775136795 
194.09635598379 0.07817602196439491 
204.080847780238 0.07864450629699737 
206.096250466056 0.05047757432711565 
218.096048018237 0.06184282157996091 
221.107473999749 0.037614411565555346 
235.123041113226 0.03861612325290519 
END IONS

BEGIN IONS
TITLE=cinchonine.mgf
PEPMASS=295.1797863
CHARGE=1+
RETENTION_TIME=98.649
PRECURSOR_MZ=295.1797863
SMILES=C=C[C@H]1CN2CC[C@H]1C[C@@H]2[C@H](C3=CC=NC4=CC=CC=C34)O
INCHI=InChI=1S/C19H22N2O/c1-2-13-12-21-10-8-14(13)11-18(21)19(22)16-7-9-20-17-6-4-3-5-15(16)17/h2-7,9,13-14,18-19,22H,1,8,10-12H2/t13-,14-,18+,19-/m0/s1
COMPOUND_NAME=cinchonine.mgf
IONMODE=positive
SKELETON=Cinchona
101.038594366974 0.07869404580612324 
103.054050440073 0.062087302029675155 
105.069867732552 0.05471277901574568 
106.065247561965 0.06741327183862848 
108.080790588124 0.1449232082431981 
115.054160425708 0.36046423728406707 
115.06086171391 0.04628706597268134 
118.064503994496 0.024907540275546293 
120.080904037477 0.057283570685480706 
122.096357779805 0.0315503232255752 
127.054165271102 0.06464458612927151 
128.049467335126 0.3103348372032657 
128.057290765624 0.053073521460152054 
129.057139466769 0.09079593357042103 
129.068937161506 0.03806304699047675 
130.065175461295 1.0 
130.072525870756 0.14754680962992106 
130.091316788217 0.04985847565443567 
134.095967933822 0.06340632439080655 
136.112202211334 0.03225844538445922 
139.053929209146 0.028143917463864195 
140.049615348239 0.03264702400156883 
142.064964995176 0.3241259849439415 
142.072416325198 0.060221426505188816 
143.07290249165 0.2515096947329834 
143.08030092061 0.04128743417602398 
144.080969695177 0.0986646627725264 
152.061982754478 0.039849939846558886 
154.065168341409 0.33895973808333274 
154.072597551783 0.06711342005573093 
155.07271671438 0.07044649435835176 
156.080814151074 0.28573210013015277 
156.08856443358 0.049817057864070716 
158.059894279292 0.11965359592266672 
159.067729586829 0.04158264781736789 
166.064937206684 0.14081275700491602 
166.073042385515 0.028507653543845286 
167.073126374364 0.5685885524970492 
167.080525682695 0.08572306795975883 
168.080782471398 0.20675545317287533 
168.089045539481 0.041372019231199555 
170.060104696841 0.02662315221933039 
172.075548951461 0.047230073384350174 
179.072731852184 0.028342018999292482 
180.080659433474 0.22825018786507564 
180.089442754781 0.03999342929946568 
181.076276590851 0.1392707376801399 
184.07607491113 0.08272947307050259 
191.073155101812 0.033815453229834966 
192.080789608711 0.06611117462562265 
193.088784995188 0.06070957056098322 
194.096105591472 0.06465349624330877 
204.080970704278 0.15437810048574363 
206.096290117102 0.0508333397751966 
207.091313276432 0.025569822135408506 
217.088233293781 0.04571319766904907 
218.096101778756 0.06801692189328938 
219.09174663726 0.032929283394924326 
221.107134054459 0.04203161178266971 
235.122827784419 0.031007001559473384 
END IONS

BEGIN IONS
TITLE=Quinidine.mgf
PEPMASS=325.1907053
CHARGE=1+
RETENTION_TIME=807.652
PRECURSOR_MZ=325.1907053
SMILES=O[C@H]([C@]1([H])[N@@](CC2)C[C@H](C=C)[C@@H]2C1)C3=CC=NC4=C3C=C(OC)C=C4
INCHI=InChI=1S/C20H24N2O2/c1-3-13-12-22-9-7-14(13)10-19(22)20(23)16-6-8-21-18-5-4-15(24-2)11-17(16)18/h3-6,8,11,13-14,19-20,23H,1,7,9-10,12H2,2H3/t13-,14-,19+,20-/m0/s1
COMPOUND_NAME=Quinidine.mgf
IONMODE=positive
SKELETON=Cinchona
102.042241703558 0.06735490747967939 
103.049231370562 0.052850811695907524 
105.065597815274 0.06609005533131632 
106.062080163926 0.09568749084853224 
107.077478147086 0.025802576448073558 
108.077141884143 0.19941900837546986 
109.083797048457 0.03465492361186929 
110.092378159242 0.13047624412822043 
115.049493130315 0.18482310110972242 
116.048932287707 0.0762600625407524 
117.053478532787 0.7629610972123902 
118.058337145525 0.16300658393545822 
120.07645319454 0.057538702706553146 
121.083129130812 0.025351922675364236 
122.092017105195 0.07394630378473281 
124.107504041571 0.0377050016073993 
127.049454227898 0.031171243545087147 
128.047168584904 0.04930119450369539 
129.053113203111 0.13500361635743535 
130.060094897103 0.13893691429151406 
131.067473762004 0.09392298310962045 
132.073362165812 0.02987242766644963 
134.091783144559 0.11324612251292496 
135.097630256469 0.03271534785820154 
136.107318151845 0.10412265911565338 
138.122952095605 0.05889150206052062 
140.046464736212 0.030961001303844098 
141.052872539291 0.12953345380874487 
142.059797460423 0.14248960428180446 
143.067873161482 0.21784345909535432 
144.074428052924 0.09598905571751115 
145.04942057449 0.22621438958749782 
146.054982537758 0.1437160464541889 
147.059668852356 0.025246074093076453 
153.054666358517 0.03259255232893652 
154.06051407492 0.3078606132234141 
155.066664934547 0.1961728998298089 
156.071748287094 0.08396382338953373 
157.051710405015 0.054467301354661664 
158.055442047881 0.14635003965539037 
159.061995888059 0.1071945726005579 
160.071097358051 1.0 
161.074330631895 0.1682535030480062 
162.08442212858 0.04454428193015484 
166.06071950906 0.07092336883889437 
166.117770520923 0.13330973641677757 
167.067711392436 0.19234377440633893 
168.070699491589 0.11148047411412047 
169.051183731744 0.08929557035206119 
169.060824489611 0.031202902676802865 
170.055955788661 0.11992595487782252 
171.062134347938 0.0582060934982619 
172.07094422885 0.5619818290551216 
173.076903788664 0.23456832657511748 
174.053535166759 0.09363720124895275 
174.084283782362 0.10566356259743621 
180.075429484535 0.06782532493093771 
181.080591411347 0.06233117360634059 
182.062231054217 0.09035311338461958 
183.064275097102 0.1336205080406047 
184.070764479548 0.3449673270777062 
185.074951300047 0.09590816198022284 
186.0862709333 0.24751039339031825 
187.089678265579 0.06151904704151234 
188.066869495228 0.08281540002593256 
189.073101162624 0.1210086506249536 
190.077127396493 0.028152149596846567 
191.067971027397 0.029864408129040763 
192.075091720914 0.04005415573825255 
193.080316347013 0.04676548428345259 
194.084962616754 0.0403641591625601 
196.072216625547 0.07115833313740366 
197.076989151564 0.0676193077870523 
198.085994303139 0.1979541915642847 
199.087463320264 0.0780291911161683 
200.092338030277 0.027159181881478922 
202.081809842219 0.04890913340343349 
204.077885063911 0.039938739580130084 
205.080876271862 0.04029258857398658 
206.085978130139 0.04887443639179945 
207.089921299584 0.03963271682606031 
208.090427970137 0.032522553057562124 
209.086104530528 0.025331542109322244 
210.086850526992 0.0990400066670407 
211.087156247773 0.06644917696732988 
212.097990111119 0.04621728081114421 
213.099250227077 0.031468420365295166 
214.086172053574 0.03087814051021019 
218.089139226354 0.027660222559040208 
219.092105997261 0.02889420705398045 
220.088602743753 0.02777342723369724 
221.101907104671 0.027453332461155295 
222.093872567204 0.03069083950007438 
223.09297116284 0.0259762710152036 
224.101260501086 0.06338698237028662 
225.101633566706 0.039885605780026305 
226.116188212171 0.04881456338681943 
227.115097543033 0.04697010470093877 
234.091671634151 0.028317277575394713 
235.091633692479 0.0302584479250349 
236.100385939871 0.040800950425757126 
237.101624683866 0.042565981937068634 
238.114031619643 0.034439362170922534 
248.102769611295 0.02536545928205004 
249.105187332113 0.02934970281154041 
250.114734259766 0.035598656721664325 
251.113823314414 0.1035112072162335 
252.122750549805 0.0691052850031857 
253.128704194326 0.17531744681207675 
254.135248933593 0.05357226743865288 
264.133815262104 0.06800238328081254 
265.132805333989 0.054462482648584346 
266.14267581781 0.033242134859055174 
278.147492577032 0.03158983080754763 
279.145605343789 0.0677493895723666 
307.175978021 0.24032784427618034 
308.179159627368 0.08937685982849597 
325.186776968184 0.3743956539461362 
326.189589416926 0.14195442528316884 
END IONS

BEGIN IONS
TITLE=quinidinone.mgf
PEPMASS=323.1778739
CHARGE=1+
RETENTION_TIME=233.113
PRECURSOR_MZ=323.1778739
SMILES=COC1=CC2=C(N=CC=C2C([C@@]3([H])C[C@@H]4CCN3C[C@@H]4C=C)=O)C=C1
INCHI=InChI=1S/C20H22N2O2/c1-3-13-12-22-9-7-14(13)10-19(22)20(23)16-6-8-21-18-5-4-15(24-2)11-17(16)18/h3-6,8,11,13-14,19H,1,7,9-10,12H2,2H3/t13-,14-,19+/m0/s1
COMPOUND_NAME=quinidinone.mgf
IONMODE=positive
SKELETON=Cinchona
101.039402399899 0.05334458720335708 
103.054646087312 0.10159555653648095 
105.070599152688 0.053482997275361925 
106.06636771892 0.05080302129304172 
107.073694931635 0.0422878382064229 
108.081687968922 0.3587279496592516 
108.088409149277 0.058409975625717425 
110.097022027029 0.04100963887702891 
115.055094272252 0.13760520987037972 
116.026634237786 0.04065375893073136 
117.058063168132 0.09692560205634518 
120.081343109884 0.049215685896552425 
121.089282265115 0.05845070544705942 
122.097296842163 0.09018042173580745 
129.058351362739 0.0906520530200883 
130.066432434083 0.06320481818558574 
134.097601980265 0.037363837971257814 
136.113032980566 0.219569011795842 
136.120272856633 0.04833332530173897 
140.05053420952 0.16475897024679806 
142.066156616742 0.08051043352297535 
143.037291648445 0.10623177832028521 
143.074418941878 0.12425525434934931 
144.08210321847 0.043836564122482456 
145.053219309844 0.07250160712203238 
145.065382553883 0.05726414339672832 
154.066159038081 0.15489312036115188 
155.074062534413 0.060342955504645954 
156.06932477963 0.0568418678661371 
157.053743454302 0.12960738032844082 
158.061275149215 1.0 
158.069971232949 0.17270215282067988 
158.089772210781 0.044916694696931006 
159.06930587199 0.28603678405966254 
159.077917078062 0.05218763282249181 
160.077051675437 0.20148221467680702 
166.065986330373 0.03837200224756137 
167.073828584328 0.048203676092867076 
168.045930881069 0.06613064769668331 
168.069407867636 0.04113743760655918 
168.081521592358 0.03555033930273553 
169.053746632038 0.04469161087118062 
169.07670214424 0.06657011726449037 
170.061812697726 0.08361199110613367 
170.08564071201 0.03472597003187258 
172.076992564459 0.6740896268103616 
172.085609696362 0.12027132653346428 
172.10244193261 0.03525115920001465 
173.084865298053 0.06959326078554776 
180.082299694346 0.05171993380681189 
181.077730171097 0.05417085514312784 
181.089415453822 0.03728076879706314 
182.061816556238 0.052280021858787225 
182.085382642071 0.35208212658628 
182.09448846387 0.08035332589928959 
183.068954880025 0.07028680502212384 
184.064931677451 0.07858603138682825 
184.076164485933 0.054157371702508464 
186.056364318666 0.059880354945068714 
186.079585742609 0.04719649488371377 
186.092069456312 0.06597725066959403 
194.084788626585 0.04347868912814473 
196.076828235185 0.06851778532319297 
197.07200537093 0.06066799412858326 
197.084743372593 0.14473832583664317 
198.056463057371 0.0488503222436291 
199.087701872746 0.04157097021981188 
206.085447321146 0.06858549166368695 
207.093839608931 0.04323796296920976 
208.100697568735 0.07333535408247548 
210.081318048674 0.04525751058483822 
210.09256949501 0.06997091277784899 
211.088144527003 0.035668673601466507 
219.093527899865 0.049402757792493805 
220.101432922219 0.07172551415857645 
221.109453340033 0.05312618245148033 
224.10870909296 0.06166516154588273 
225.104015272872 0.08986605228182415 
227.083040349733 0.036844576119756854 
232.100923407219 0.035773206408441276 
233.110530270488 0.03648238334028869 
246.117256492656 0.04116378766135072 
249.104289460817 0.05874678214171781 
262.149285048609 0.05301842094357098 
263.119257648349 0.04963032819985948 
289.13666239091 0.043387736140921715 
END IONS

BEGIN IONS
TITLE=quinine.mgf
PEPMASS=325.1906465
CHARGE=1+
RETENTION_TIME=150.182
PRECURSOR_MZ=325.1906465
SMILES=COC1=CC2=C([C@@H](O)[C@@H]3C[C@@H]4CCN3C[C@@H]4C=C)C=CN=C2C=C1
INCHI=InChI=1S/C20H24N2O2/c1-3-13-12-22-9-7-14(13)10-19(22)20(23)16-6-8-21-18-5-4-15(24-2)11-17(16)18/h3-6,8,11,13-14,19-20,23H,1,7,9-10,12H2,2H3/t13-,14-,19-,20+/m0/s1
COMPOUND_NAME=quinine.mgf
IONMODE=positive
SKELETON=Cinchona
105.070068145532 0.05553785352100986 
106.065341232913 0.07283457785242928 
108.080775150018 0.2265646747259275 
110.096575398688 0.04497222686782651 
115.054243757747 0.13918347590193922 
117.057253075853 0.4853884875566425 
117.064717327422 0.05123141315383554 
117.069511443526 0.038433129964946064 
120.080754767913 0.053136701961964405 
122.096112155146 0.05974986704907146 
129.0574256992 0.07829497240093293 
130.065491008484 0.05407989811203415 
131.072839025178 0.07507663390390018 
134.096416090988 0.06403959716599725 
136.112086196356 0.08743715031190379 
138.127992295363 0.03463217466778978 
141.057156656101 0.06723171449534834 
142.065281860266 0.06355597467338771 
143.073282213159 0.21201631310330094 
144.080646876052 0.07196596511930213 
145.052292126119 0.3177856523284828 
145.063066799943 0.060403975869841635 
146.059988659811 0.0792760172678156 
154.065431593206 0.20204753481336946 
155.073017387683 0.19039742684426506 
156.080411739059 0.035871462527054934 
157.052346311388 0.06655797113053616 
158.060149732814 0.18690944060905518 
159.067932795128 0.14211942509498035 
160.075769189269 1.0 
160.084617221742 0.11680512269431617 
166.064862030616 0.04774261925653033 
166.122372414592 0.05603722542447865 
167.072707671683 0.16105032834945476 
168.068105261165 0.04172270982887171 
168.081026715579 0.040769807808449285 
169.052566504706 0.1474508304367739 
170.060122847579 0.11471519954614959 
171.068107704714 0.06601318912201698 
172.075764475948 0.5956495420486293 
172.084692890734 0.06602598638866565 
173.083580224639 0.10781477133206177 
174.054761081942 0.2179251968432666 
174.091502837201 0.0536693411886363 
180.080575883684 0.05584392960472877 
181.088519855931 0.052708084043089604 
182.060451898471 0.08297144733465242 
183.06774145831 0.1591062299851237 
184.075706549529 0.17301681705659802 
186.091104842091 0.20505078453928655 
186.101056688665 0.030183585771834623 
188.070655309927 0.11836371558541366 
189.078514911748 0.057967718860065715 
193.088895279477 0.03390434579300651 
196.075495836411 0.06396998504850358 
197.083609875784 0.0589468420481698 
198.091825864831 0.1167208055566038 
200.070611535242 0.03643852486923881 
202.086151925727 0.04404014303417204 
204.081152396084 0.03194444231698203 
210.091297772524 0.08910928935344004 
211.086443332044 0.03814709225631686 
214.086595473614 0.03373990300535243 
220.076580940298 0.02921904227707238 
224.106310716609 0.051521475247732935 
237.101952606308 0.03999503705567618 
248.106956827558 0.032458491390252434 
251.11757069102 0.0760745700487424 
END IONS

BEGIN IONS
TITLE=mersicarpine.mgf
PEPMASS=285.1594216
CHARGE=1+
RETENTION_TIME=125.447
PRECURSOR_MZ=285.1594216
SMILES=O=C(CC1)N2C3=CC=CC=C3C4=NCCC[C@@]1(CC)[C@@]24O
INCHI=InChI=1S/C17H20N2O2/c1-2-16-9-5-11-18-15-12-6-3-4-7-13(12)19(17(15,16)21)14(20)8-10-16/h3-4,6-7,21H,2,5,8-11H2,1H3/t16-,17-/m1/s1
COMPOUND_NAME=mersicarpine.mgf
IONMODE=positive
SKELETON=Mersicarpinan
104.048920064807 0.07755458871537514 
106.064835787074 0.11169851536436304 
108.080695414019 0.07281358017064123 
109.088322300161 0.11334378059328398 
110.096321702493 0.047794847972170214 
115.05420598794 0.08870135568841028 
116.049395781524 0.06992359401583485 
117.057246289932 0.21341320457620083 
118.064767366214 0.10482177877471621 
120.043925828311 0.10470500945718604 
124.07529438685 0.1551178504782453 
124.111974703228 0.7306137587007696 
124.119038796763 0.10874061013899054 
127.054078332787 0.051496298707676316 
128.049360019903 0.07443510342708146 
128.061834855859 0.07176657700557293 
129.069844951892 0.15452748920423404 
130.06499323826 0.4745721296569117 
130.072260262734 0.09643856551754727 
131.060158248615 0.06910565435173129 
131.07291376489 0.04223566214559314 
132.044107844209 0.168446522543587 
132.068032598897 0.11001412241432297 
132.080784399816 0.05918081680305925 
134.059474468828 0.041879136528816696 
141.070342557073 0.04295647555863931 
142.065419417727 0.05062661778077704 
143.073133547854 0.2834514293499095 
143.082092337 0.044190305671460206 
144.080861531784 0.1415215812351687 
145.076009292478 0.17312598809376714 
146.060015622772 0.06574554149914616 
147.055066574579 0.08509221944473486 
148.062846421632 0.0575077106956497 
154.064934570807 0.1744766667300314 
155.073105183719 0.11450000871265045 
156.067899207521 0.07623723596708835 
156.080513759489 0.29541587856783036 
156.089078757256 0.052063017016598385 
157.075811991504 0.1252062719994424 
157.088323698163 0.06280741795059452 
158.059973065748 0.09650082136531984 
158.096426087579 0.3522479034194777 
166.065228613162 0.09998029752909234 
167.072884956248 0.444603978354608 
167.082397558741 0.09673267687472475 
168.068128851078 0.046568740435885984 
168.080506659553 0.37033694987532995 
168.088458116891 0.06586896411338486 
169.0760969379 0.480201491922581 
169.086263304183 0.09842673294617484 
170.059849885067 0.057166650033424894 
170.083418268166 0.050869878941682274 
170.096170112056 0.1355255747973121 
171.091528346552 0.08949365243811643 
172.07536727801 0.06119811220626487 
172.099402761048 0.05756462014428149 
180.080660695921 0.41767575000079205 
180.089992431629 0.0618344723143651 
181.076143302383 0.0911991339625451 
181.088375686375 0.18563751255413727 
181.097780196461 0.044780369923296995 
182.083735651704 0.29733820608111317 
182.095583264056 0.1868723327408731 
183.068058987535 0.10039424743293635 
183.091596415975 0.669878268432008 
183.101198337816 0.12347069222799897 
184.07568573561 0.3592724778461061 
184.084564800269 0.05858025776772391 
184.099608518205 0.2500970272436659 
184.110952824895 0.11837006903587395 
185.107776962771 0.06719978186691507 
186.091047058528 0.09685124812678016 
193.088305274863 0.06453620581498133 
194.096292611491 0.2911433135952198 
194.10547311433 0.04857738259307486 
195.092140993511 0.19095914004555925 
195.102418157673 0.048066187629303654 
196.07631357903 0.07732859444354678 
196.099308058204 0.10988260099545993 
196.111603279316 0.10316712764508147 
197.106940731916 0.2565683483666157 
197.116770670409 0.04649220772225972 
198.091517236985 0.09293378306450846 
198.114978226273 0.13530045179052888 
199.086282458703 0.1629591962817576 
201.102484073772 0.05070526925258132 
201.138765390149 0.04908388460648918 
204.08069575301 0.07924775372030174 
209.107558516464 0.15029807165283732 
210.091010187635 0.11357175501294225 
211.087024431663 0.05317752342118853 
211.122815193409 0.21781210298036013 
213.138003136731 0.0710522584774089 
215.117528820149 0.06386285654541826 
222.091141559703 0.1383742352669081 
223.086546114294 0.19166330041535581 
237.102288376051 0.20387443644992762 
238.109820422613 0.06247374323977531 
239.117844045203 1.0 
239.127504412076 0.16783424103309855 
239.151650690731 0.04489381259247291 
255.112731654621 0.04372524815212605 
END IONS

BEGIN IONS
TITLE=14-15-Dehydrovincine.mgf
PEPMASS=383.1975874
CHARGE=1+
RETENTION_TIME=128.636
PRECURSOR_MZ=383.1975874
SMILES=CC[C@@]12C=CCN3[C@]1([H])C4=C(C5=C(C=C(OC)C=C5)N4[C@](C(OC)=O)(O)C2)CC3
INCHI=InChI=1S/C22H26N2O4/c1-4-21-9-5-10-23-11-8-16-15-7-6-14(27-2)12-17(15)24(18(16)19(21)23)22(26,13-21)20(25)28-3/h5-7,9,12,19,26H,4,8,10-11,13H2,1-3H3/t19-,21+,22+/m1/s1
COMPOUND_NAME=14-15-Dehydrovincine.mgf
IONMODE=positive
SKELETON=Eburna
108.080782740147 0.19818221261110666 
121.064597967045 0.10037144545012781 
122.096405461449 0.05929468886649927 
131.073079168922 0.18797564422658117 
143.072995969425 0.11199360910047539 
150.091451782341 0.16173795849963885 
155.072874292569 0.1029297508248689 
159.067907879519 0.3433288885235175 
159.075967663921 0.06451090579091205 
160.075686361622 0.110718724285227 
167.072646299992 0.06405409165230079 
172.075449242305 0.07355836734042065 
174.091359856127 1.0 
174.099832547774 0.1670022297523206 
183.067810263134 0.09804796863344534 
184.075798381898 0.06843963108940725 
198.091033041794 0.09707700804507952 
201.102113572714 0.09140706964301358 
210.091263094264 0.062200114507177724 
223.098888009187 0.05891836263507759 
224.107070285466 0.0655947541272685 
234.091267956879 0.06799397302232485 
238.122091040282 0.08521898120100733 
239.093967207298 0.06204878779498785 
247.098876672854 0.09828901625153973 
248.106733976876 0.11105013383349721 
254.080971643578 0.21140733055113806 
261.114232423792 0.07659880168947007 
262.122413542011 0.15089677608651084 
267.088316904941 0.10170462973594635 
275.118088371522 0.08135071461273305 
276.13777383252 0.09507652873886122 
277.133087306588 0.0820199664440663 
277.145256790021 0.07263844128088345 
282.112234279755 0.07983957299236541 
292.096476528323 0.20279961165175198 
306.112422496377 0.10388748607037389 
320.11585318648 0.06792126737470984 
320.126982891412 0.12358869228686983 
321.135383153499 0.07640418896990661 
335.138434669655 0.2275948803078356 
335.149127645845 0.06488177769300763 
336.159288736235 0.07239419978747233 
END IONS

BEGIN IONS
TITLE=14_15_dehydrovincamine.mgf
PEPMASS=353.1867417
CHARGE=1+
RETENTION_TIME=779.257
PRECURSOR_MZ=353.1867417
SMILES=CC[C@@]12C=CCN3[C@]1([H])C4=C(C5=C(C=CC=C5)N4[C@](C(OC)=O)(O)C2)CC3
INCHI=InChI=1S/C21H24N2O3/c1-3-20-10-6-11-22-12-9-15-14-7-4-5-8-16(14)23(17(15)18(20)22)21(25,13-20)19(24)26-2/h4-8,10,18,25H,3,9,11-13H2,1-2H3/t18-,20+,21+/m1/s1
COMPOUND_NAME=14_15_dehydrovincamine.mgf
IONMODE=positive
SKELETON=Eburna
103.053427473531 0.055380067450349055 
105.068634787305 0.03521388474783631 
106.064686435007 0.03785910738138514 
107.073127319079 0.04229048899800959 
108.079958423336 0.15217616277745236 
115.053068457618 0.1062824299408533 
117.065193238087 0.1251787402826379 
118.063923571729 0.04684887356241174 
121.06901348132 0.0305648436462782 
121.074605137236 0.03654120957607464 
122.095195382793 0.03807611221194881 
127.05327165177 0.06878566066016918 
128.053336390002 0.06760840879970692 
130.064636179162 0.11219827962068803 
132.079509679626 0.03191120582359579 
142.065225694489 0.03176092336642131 
143.071950446164 0.1403982498208211 
144.079965538343 1.0 
150.090538595001 0.11831369413866995 
154.064053618763 0.10574833671964219 
156.077473400576 0.05518537324071458 
167.072015557127 0.19745664158642134 
168.079492963075 0.1472211362233618 
169.078785843588 0.03271548799638841 
171.09087121284 0.2364842808320605 
180.079927321216 0.09178419240134818 
181.084489317376 0.05022351209500135 
182.093268187309 0.033246150828700784 
186.090308059938 0.03163580582322918 
191.073177748982 0.049299873337472495 
192.080003353118 0.06873629972067208 
193.08716484091 0.0938627723984101 
194.094860327715 0.05622027705496662 
204.080112813178 0.07375236624822033 
205.087972717861 0.025069965531138112 
206.093869436685 0.04895594411765554 
207.099459919372 0.030364912201683827 
208.10767995022 0.0666725149123719 
210.112149093079 0.09276850452588753 
216.079749412163 0.0672021826700419 
217.08743199236 0.25042396726309174 
218.094735102136 0.13865301982895717 
220.104301391282 0.025755954277891357 
221.108372706754 0.04059663628110231 
222.123789100309 0.04302241876983112 
228.101209583147 0.14475358678582775 
230.094959017404 0.07982166691238028 
231.101793273063 0.07844587147458802 
232.109471795025 0.08605070324281734 
238.0860211102 0.02783852242937523 
245.106308398114 0.06608322123468338 
246.124827408202 0.1284639530282871 
247.130199237532 0.12659844993556893 
251.093252407456 0.03922733501466034 
251.152001272443 0.048228465995549925 
252.101402019234 0.1369679132944329 
274.120713676039 0.038033193071452386 
275.092720220739 0.028799266996595015 
275.15337221458 0.03664959415356987 
276.101022488811 0.0674559790761989 
277.107224826818 0.055685293503812315 
289.09991865381 0.030303374690904945 
290.114418583077 0.06678113516544033 
293.162249495038 0.026646999103647238 
305.127710431495 0.14466607258964773 
306.146409942357 0.39907389974204005 
335.174542549927 0.1764749690283018 
353.185078521976 0.08673460757005653 
END IONS

BEGIN IONS
TITLE=16-epi-14-dehydrovincamine.mgf
PEPMASS=353.1867989
CHARGE=1+
RETENTION_TIME=131.208
PRECURSOR_MZ=353.1867989
SMILES=CC[C@@]12C=CCN3[C@]1([H])C4=C(C5=C(C=CC=C5)N4[C@@](C(OC)=O)(O)C2)CC3
INCHI=InChI=1S/C21H24N2O3/c1-3-20-10-6-11-22-12-9-15-14-7-4-5-8-16(14)23(17(15)18(20)22)21(25,13-20)19(24)26-2/h4-8,10,18,25H,3,9,11-13H2,1-2H3/t18-,20+,21-/m1/s1
COMPOUND_NAME=16-epi-14-dehydrovincamine.mgf
IONMODE=positive
SKELETON=Eburna
108.080740940279 0.05599234374331442 
117.069816022181 0.05956453077360617 
118.065300126327 0.04506239354588239 
127.054296439547 0.04538479323906685 
130.065137336544 0.10876261404010822 
143.072806225485 0.10195367226714934 
144.080829370638 1.0 
144.088767393961 0.10422460184835164 
144.105910643179 0.04070683767628841 
154.065004530804 0.10738979508600531 
167.072856929447 0.14252606224477019 
168.080660821393 0.22897569695920525 
171.091688042154 0.12644254529709803 
180.080649792884 0.13130386004249725 
181.088612664137 0.07884476256536416 
182.096520802274 0.08403216695538573 
192.080785237661 0.05328293801784445 
193.088370185193 0.12996173834397334 
194.096258345614 0.09741067471547138 
206.096407362925 0.07319772369251085 
207.104040286981 0.06208959594639207 
208.111944327892 0.09580479999874385 
210.090960657096 0.05763150653258796 
217.088449505074 0.08593461170523256 
218.096418673363 0.08989467543932994 
220.111914090972 0.04062883838365996 
221.107403289174 0.040036601177879605 
222.127503441082 0.046223354330727204 
231.104107879339 0.04791099680112614 
232.111573512007 0.061312547130297296 
246.127083093193 0.04890991376112432 
252.102065055745 0.05738989322301164 
276.101866017568 0.06479735297015575 
290.117408743082 0.05037188037177439 
END IONS

BEGIN IONS
TITLE=Apo-delta_14_vincamine.mgf
PEPMASS=335.1762531
CHARGE=1+
RETENTION_TIME=176.616
PRECURSOR_MZ=335.1762531
SMILES=[H][C@]12[C@]3(CC)C=C(C(OC)=O)N4C5=CC=CC=C5C(CCN2CC=C3)=C41
INCHI=InChI=1S/C21H22N2O2/c1-3-21-10-6-11-22-12-9-15-14-7-4-5-8-16(14)23(18(15)19(21)22)17(13-21)20(24)25-2/h4-8,10,13,19H,3,9,11-12H2,1-2H3/t19-,21+/m1/s1
COMPOUND_NAME=Apo-delta_14_vincamine.mgf
IONMODE=positive
SKELETON=Eburna
105.070146496644 0.043708608767405246 
115.054245832693 0.06292553993197755 
130.065209479285 0.09515499922355757 
144.080756453809 0.08145602367083712 
154.065002492625 0.12799080676936006 
165.070037401903 0.04269763504769793 
167.072931578826 0.12161183739773036 
168.08051894044 0.04880688582642401 
169.076387929698 0.10024790969517783 
180.080845761334 0.3453246747315184 
180.090252976187 0.040793809622405384 
181.088039252014 0.10052712448351354 
191.072482617376 0.08316512951364255 
192.080589653758 0.19367861677541934 
192.090195749596 0.04047031097280625 
193.088606467037 0.22601154463326034 
193.098930998404 0.03882552805697565 
203.07278706548 0.040456437773467586 
204.080803738413 0.26514709777998363 
206.096673853779 0.05610369388680992 
208.07559599394 0.08529301947804799 
208.111495968535 0.05896712984248876 
216.081009744167 0.2564149749863742 
216.091095329082 0.04266855651739688 
217.088599533621 1.0 
217.098435893245 0.16117814482021553 
217.122419967541 0.042542822322567675 
218.096461006935 0.7898018092631105 
218.105875051936 0.12555633622697696 
228.08033659459 0.039188457802637466 
230.096149491105 0.42292933460406 
230.106648927071 0.06293178192015736 
231.104000907758 0.3178351871530749 
231.114576838883 0.06826548469799434 
232.111870982422 0.3779069015075162 
232.121924310656 0.07024175905316651 
238.08666945196 0.10862121332070726 
244.098206817127 0.05367148796818717 
244.11186046334 0.09436696724630884 
245.106920400239 0.3748481369948937 
245.118981685906 0.08351926719058768 
246.127386954297 0.3190622706830562 
246.137873769578 0.055575674972063296 
247.136020015371 0.10705009728366943 
251.094092576418 0.4996654446579238 
251.104717062206 0.0677880296935945 
262.08620674808 0.152083606103142 
263.094012011759 0.05951419823945484 
264.102215861735 0.041929299588028775 
266.11762070029 0.04372499398637724 
275.094201923689 0.28800476370268646 
276.101488027023 0.6629539523964668 
276.112409770485 0.11630295032899844 
278.116867764941 0.068842735391464 
288.101828334192 0.1030990710094665 
289.096948363473 0.23115300178734002 
289.108961910392 0.08661021219714939 
290.104331558748 0.14724345809190034 
290.117610425439 0.35149891450303117 
290.129568644627 0.07024493713861173 
305.128276673161 0.226096610752662 
305.139828159387 0.04950170665091453 
306.149305626136 0.06029043133660759 
END IONS

BEGIN IONS
TITLE=chlorhydrate-eburnamonine.mgf
PEPMASS=295.1805847
CHARGE=1+
RETENTION_TIME=225.804
PRECURSOR_MZ=295.1805847
SMILES=CC[C@@]1(CC2=O)CCCN3CCC(C4=CC=CC=C4N25)=C5[C@]13[H]
INCHI=InChI=1S/C19H22N2O/c1-2-19-9-5-10-20-11-8-14-13-6-3-4-7-15(13)21(16(22)12-19)17(14)18(19)20/h3-4,6-7,18H,2,5,8-12H2,1H3/t18-,19+/m1/s1
COMPOUND_NAME=chlorhydrate-eburnamonine.mgf
IONMODE=positive
SKELETON=Eburna
103.054029729868 0.08655186803266822 
105.07028637402 0.09378298970389107 
106.064730443218 0.07751377498445791 
107.072736453712 0.03945907105081629 
107.085121525424 0.08345207071868374 
108.080341647375 0.09337912930175521 
109.064373070617 0.03825230150822241 
109.088533520853 0.07628952590208052 
110.096287084571 0.06950493089088168 
111.080259433886 0.0740324936341262 
112.111814621522 0.06220714851434558 
115.054270789462 0.12417469320320552 
117.057247183904 0.11963693228754163 
117.070170510516 0.09125780298578642 
118.065118234512 0.09996001635114077 
119.072929987123 0.06785993800192468 
122.060233550043 0.033665785237985746 
122.096412356659 0.06021756810846257 
123.0797127311 0.04439347487289544 
124.075796752385 0.1061920364834828 
124.11198461553 0.18584003985590558 
127.054864246395 0.043888846307793196 
128.049381256123 0.04829628778007716 
128.061695951052 0.059983904345826636 
129.069687330308 0.16197501767115474 
129.077154440772 0.03304595351847594 
130.065208404016 0.3022431721213051 
130.072221764245 0.060291510181139985 
131.073032876996 0.13047143660100663 
132.081013077088 0.12970127232313944 
134.096918627599 0.07916517632831728 
135.080939039841 0.034328240634288 
141.06881636829 0.042689826524616135 
142.065331539337 0.04746282670345674 
143.072808359942 0.1560051267639219 
143.084049698801 0.04571900309138756 
144.080893270173 0.7824895889221023 
144.099517676188 0.03972565000042581 
152.107508468457 0.033034861143046934 
154.065238954209 0.24201987685547124 
154.073448606629 0.04727102015789071 
155.073141986687 0.11789747323778137 
156.081292594568 0.1513759868168928 
156.08902023045 0.04085664648322731 
157.088351776321 0.08581998415983241 
158.059903825771 0.05884068708856016 
158.096162538727 0.07218687991279392 
165.070523949866 0.05414842066716061 
166.064933176452 0.03652934263304464 
167.073194157253 0.733028665593623 
167.082808911068 0.14483044207693552 
167.093168084044 0.04921514524411742 
167.103939276395 0.0370297130885772 
168.080762753915 0.8997332294354599 
168.089383813991 0.18697876480757605 
168.102091518287 0.04753928106078026 
168.109814876862 0.0437037462847994 
169.088482912974 0.19702228268737812 
169.097430184197 0.04832971394019911 
170.060346586291 0.04052907011403217 
170.096535807464 0.053749180313907845 
172.112243535598 0.03414282125307649 
178.076920156047 0.033934706147858595 
179.072631811359 0.05299939109033154 
180.080825558382 0.9458536658065285 
180.089645751262 0.2104841257675243 
180.102106519457 0.04529095662689593 
180.111629705633 0.04549553750117098 
181.088815496045 0.5076895071663985 
181.098159634878 0.10839475656387591 
182.060301296335 0.0952664724968703 
182.096752745748 0.46861624213314257 
182.104726274206 0.09403079039029834 
183.067238444083 0.07275065361981894 
184.076100144173 0.06753368164669614 
184.112463912761 0.10123885439820138 
191.073047993696 0.059357174488813946 
192.081453147073 0.13958483431695665 
193.088599561673 0.26560937806051627 
193.099308628318 0.049528627270636935 
194.096297024875 1.0 
194.105348309564 0.18061802202294272 
194.11604850962 0.044109629288980864 
194.121337156252 0.0411244389940642 
194.128252453017 0.0355576420292447 
195.104282185669 0.5565278948757909 
195.11397640762 0.10584042308576684 
196.075314509518 0.48234332285838377 
196.112011185622 0.1983448089386236 
196.121917275495 0.052399870553469084 
197.083437043691 0.41021477904669446 
198.12755396037 0.06537905691389252 
204.080621800729 0.09022772369978625 
205.088876838599 0.0719247932687804 
206.096213743113 0.2759071902438194 
206.105935751066 0.05885788985122165 
207.06734114275 0.05175133917545967 
207.103859318443 0.16779655604098007 
208.075673809707 0.18103695613295523 
208.085061787971 0.053557927322585866 
208.1121082161 0.4497370617340726 
208.121579280146 0.0763823314001516 
209.083980345906 0.18407720378460782 
209.093363162002 0.03296343135501563 
209.11893144638 0.11726748592694788 
210.09150062381 0.45657643732488523 
210.101704354 0.08290415846980576 
210.127141667742 0.13869457005867675 
211.098908173827 0.1256211517334764 
212.107583084412 0.039386299958270525 
218.095669779823 0.049429881709716156 
220.076105457639 0.14779370310756837 
220.112391479394 0.1514870383144699 
220.121463388688 0.03835394258365056 
221.083793975817 0.06953512088773069 
221.120158208989 0.07202370915408396 
222.091760520762 0.8168721204534036 
222.101349961626 0.18165050714084974 
222.115328901137 0.0525196724662119 
222.126098822037 0.0813343637958492 
223.099449303225 0.558212190116076 
223.110025440398 0.10717446752339832 
223.122445781233 0.3566070957137869 
223.132812115554 0.09058278616625363 
224.106837181165 0.5513261882254754 
224.116521644159 0.11457640326000869 
224.130949769004 0.2856048218832767 
224.138779807793 0.06672562019365882 
224.142895625268 0.07650615722643775 
225.115242118482 0.19786370642889384 
233.082584089595 0.03318142527443517 
234.09116313457 0.16854868722481967 
234.103316646596 0.04538027047511987 
235.099080895209 0.09770551765838038 
236.107042516874 0.6101251458402528 
236.11692608846 0.11660426407092309 
236.129358277532 0.03562176915936401 
236.141548134863 0.054882667790807596 
237.114497448977 0.2993700126891665 
237.12403725269 0.0579416298340189 
237.138963756879 0.05582028222750228 
238.122769794942 0.3438461800499051 
238.158341864417 0.033366056905376286 
248.106885907849 0.10196618209379765 
249.115566865076 0.05471540924691074 
250.122683039663 0.04830022653142911 
251.130942170632 0.043428565953859126 
252.138105780065 0.08299560137281453 
END IONS

BEGIN IONS
TITLE=chlorhydrate-homovincamone.mgf
PEPMASS=309.1959972
CHARGE=1+
RETENTION_TIME=256.108
PRECURSOR_MZ=309.1959972
SMILES=[H][C@](N1CC2)([C@@]3(CC)CCC1)C4=C2C5=CC=CC=C5N4C(CC3)=O
INCHI=InChI=1S/C20H24N2O/c1-2-20-10-5-12-21-13-9-15-14-6-3-4-7-16(14)22(17(23)8-11-20)18(15)19(20)21/h3-4,6-7,19H,2,5,8-13H2,1H3/t19-,20+/m1/s1
COMPOUND_NAME=chlorhydrate-homovincamone.mgf
IONMODE=positive
SKELETON=Eburna
103.054051762047 0.07353729776090025 
105.069867254824 0.16076470113737193 
105.077425296751 0.02719045619666738 
106.064415228068 0.06457160506849947 
107.072440191736 0.02619521954925682 
107.085395020271 0.12793838321788634 
108.080776983436 0.22572720585142947 
108.088091942165 0.04283423960442594 
109.088489944096 0.035585318753020616 
110.096470753942 0.846733666609443 
110.103397417793 0.13269380722796872 
110.120383112036 0.036065459730056 
111.104252346385 0.15091202793066147 
111.110640921351 0.02513119730511035 
112.112033842502 0.173194921021008 
115.053852771665 0.10242069869399062 
115.060687614705 0.027002817748159366 
117.057152519106 0.13176457772731065 
117.06447453812 0.03288665785560196 
117.069940570594 0.06991083450710779 
118.064954500738 0.05831878266660876 
119.0856159771 0.03946218033174555 
120.080808099792 0.0822536331853102 
122.060229007245 0.029409176055138788 
122.096264936875 0.06021216188918053 
124.075815378817 0.07531764301950639 
124.112104800844 0.17912942819775118 
124.120020142691 0.03385086273285032 
127.054231678346 0.07685978617655637 
128.049164309079 0.09111606130239672 
128.062027451555 0.12004331072654054 
129.069797461782 0.3051180013912933 
129.077420520054 0.053650628184789675 
130.065103850342 0.7735763201601712 
130.072228774155 0.12110181054280435 
130.087307131884 0.032805090010058956 
132.080651667931 0.1482507140892234 
134.096282403226 0.03246638109992147 
136.074822534589 0.02773087506006761 
136.112306541897 0.06264532568880396 
142.064987323384 0.07834711871978953 
143.072947760308 0.24622672013976363 
143.083852756784 0.07349255299565859 
144.080800075987 1.0 
144.088490034518 0.14430386728523376 
144.108400254376 0.04659923927004672 
146.096097052796 0.06689669888427652 
152.061993831267 0.0259919583522068 
153.070172885563 0.058917183575568674 
154.065274791778 0.24419079884918393 
154.073716351765 0.052571610584032945 
155.072897546366 0.23412688071073168 
155.081773943514 0.05159480960723197 
156.080878400422 0.339790161529292 
156.089188313204 0.06556244307797103 
157.088607105352 0.07883482976650678 
158.059784025921 0.10853046194661102 
158.096272458138 0.0944728839138777 
165.069560871499 0.029677872162344212 
166.065242157414 0.0533507831023359 
167.073232420706 0.36003147990725637 
167.082174403829 0.0762849986452471 
168.080841292705 0.7003893277185202 
168.088951445268 0.11769610651598231 
168.110161126144 0.029527525614482138 
169.088803261473 0.20125126771089505 
169.097509537185 0.03675417749951912 
170.059971781497 0.07651265228904981 
170.096504070662 0.44534657888695156 
170.105406629995 0.09184604215660117 
172.111575863214 0.039292667305089665 
178.065500545471 0.024812034066692454 
180.081012543833 0.41731229433092787 
180.08975589613 0.0769071508201943 
181.088425706657 0.22817113873014494 
181.097098765104 0.052655005450036506 
182.060136577953 0.03826854994556858 
182.096384252806 0.46143283907259064 
182.10572531347 0.07729882264043754 
183.067701283185 0.19192643105686585 
183.075940072046 0.04097399494915023 
183.1040433739 0.11659375820866506 
184.075491794915 0.13126149213105737 
184.111875082211 0.14721675839688264 
184.120366749477 0.027777922560531257 
186.091226515481 0.0246666652877833 
191.072238515533 0.025596087832112677 
192.081133062047 0.056939968244316075 
193.088869137009 0.11534414515780977 
193.097669761013 0.02546759658560901 
194.096279250617 0.36582216954887764 
194.105335322082 0.07243674200195939 
195.104132982802 0.13617907282503558 
195.113836702023 0.028746222721378004 
196.075596843951 0.2041581606798998 
196.084889797574 0.042540309931614284 
196.11194488841 0.3245772860679693 
196.12071451859 0.05748957047093693 
197.083644781279 0.23685224368454183 
197.092645985903 0.044023002532319305 
197.108034434309 0.027398384913912867 
198.091192450495 0.16262515951956946 
198.127512705402 0.16149937019502236 
198.137622832122 0.0335382491904231 
204.081185405131 0.0335518863469174 
205.088703501727 0.0383528755578445 
206.096041978184 0.14965607201632045 
206.105655921769 0.031632239396214554 
207.104204076279 0.10980358495886447 
208.111919283515 0.3153888899230515 
208.120341804099 0.06158050369230494 
209.083481754695 0.031140943252744496 
209.119630934366 0.08369118803901412 
210.091060301225 0.07827176274381244 
210.127798388279 0.25346606464618887 
210.137014798862 0.05070254107521189 
211.099209575696 0.04524085300482816 
212.106711356179 0.02552618533984994 
218.096645214377 0.042246228581632315 
219.103564568372 0.030573594797197283 
220.075345112811 0.024904336519243352 
220.111986269328 0.1701458651769211 
221.119859505967 0.05489627005154955 
222.091370186784 0.10588479843138228 
222.127573679843 0.1970837306241033 
222.137513732731 0.027089342679404792 
223.123137076412 0.0837550992830496 
224.107053536539 0.060814147894893235 
224.143039226445 0.1529774573252834 
226.122746788496 0.06447492466126006 
232.112705119292 0.025648395772619376 
234.090742039376 0.036122042208998735 
234.127739341703 0.07787402383675676 
236.106862335045 0.07706820439739695 
236.143298324039 0.026168103807855364 
237.138324837148 0.14392219236939735 
237.148094475664 0.03201753388088792 
238.122170482181 0.028672376622687182 
248.106608835794 0.039528022012494064 
251.154063247979 0.04241905782278453 
262.122490437458 0.04208520947651383 
279.148344296288 0.03513105252235687 
END IONS

BEGIN IONS
TITLE=Criocerine.mgf
PEPMASS=351.1711308
CHARGE=1+
RETENTION_TIME=177.877
PRECURSOR_MZ=351.1711308
SMILES=CC[C@]12CC3(C(OC)=O)N4C5=CC=CC=C5C6=C4[C@H]1N(C=C[C@H]2O3)CC6
INCHI=InChI=1S/C21H22N2O3/c1-3-20-12-21(19(24)25-2)23-15-7-5-4-6-13(15)14-8-10-22(18(20)17(14)23)11-9-16(20)26-21/h4-7,9,11,16,18H,3,8,10,12H2,1-2H3/t16-,18-,20-,21?/m1/s1
COMPOUND_NAME=Criocerine.mgf
IONMODE=positive
SKELETON=Eburna
192.081158420153 0.025687001355744036 
204.080455114182 0.05111312820416611 
216.080778749263 0.07140704379930575 
217.07570258637 0.05242054109471503 
217.08825936142 0.31576211078917327 
217.098185734263 0.04637550633480643 
218.096361739935 0.7414187251591772 
218.105545668787 0.08149572170884445 
218.130519059251 0.029955867965870783 
230.096042902441 0.05895682200796893 
231.104305059273 0.06378039043441747 
232.111892246788 0.0915669079269366 
238.086024248782 0.026197355940470863 
243.091481224721 0.03502393382070961 
244.099435356513 0.026627265298194716 
245.10716132835 0.2807251492449604 
245.117917958 0.05453897253694086 
246.127317812115 0.08195089193831669 
251.093967665427 0.23462494116556465 
251.103904873165 0.05399809301938046 
262.086033532316 0.11369770494661724 
264.101497248368 0.039556764953051084 
266.117326846749 0.26234927210836684 
266.127652706096 0.05183781394689258 
275.093677909402 0.07141107185443382 
276.088625117893 0.0581420512953508 
276.101816651235 1.0 
276.112355662069 0.23671737785750507 
276.134865408735 0.03592792871335643 
277.096717123176 0.02463759367297379 
289.096974710952 0.2074830780300493 
289.107204099583 0.050098902548103535 
290.117445538129 0.11827291342605954 
303.112640638352 0.1061096215890512 
305.128254934788 0.06880194052935266 
END IONS

BEGIN IONS
TITLE=eburnamine.mgf
PEPMASS=297.1962233
CHARGE=1+
RETENTION_TIME=145.102
PRECURSOR_MZ=297.1962233
SMILES=CC[C@@]1(C[C@H](O)N2C3=CC=CC=C43)CCCN5CCC4=C2[C@]15[H]
INCHI=InChI=1S/C19H24N2O/c1-2-19-9-5-10-20-11-8-14-13-6-3-4-7-15(13)21(16(22)12-19)17(14)18(19)20/h3-4,6-7,16,18,22H,2,5,8-12H2,1H3/t16-,18+,19-/m0/s1
COMPOUND_NAME=eburnamine.mgf
IONMODE=positive
SKELETON=Eburna
103.054336787776 0.033538100817201405 
105.069756400524 0.03136720056377896 
107.085762557652 0.035874263534463775 
110.095926330732 0.051166014022757535 
111.080747886557 0.02858949149391911 
112.111961039952 0.058477108920426235 
115.05370674609 0.02522414677572443 
117.069623408799 0.05404368701486214 
118.065339337213 0.031216493608090205 
127.054300324258 0.05469457948192929 
129.069667855067 0.030983876243786103 
130.065292916204 0.09154448650670001 
131.072832224312 0.03335383349933004 
132.080941132027 0.0279449656895425 
143.073161753357 0.11015277795056397 
144.080836757028 0.3664239041107419 
144.088855366801 0.06498709470154623 
154.065382556497 0.0316219914774536 
156.080732669461 0.05370187772641353 
158.097097656936 0.027799491106064944 
167.073498299835 0.05831712273681607 
168.081124309914 0.0775755163034132 
170.097104620546 0.043911231158886295 
180.080967234085 0.2681489037997268 
180.090170160036 0.047162166216731444 
181.088731691022 0.16136650535348518 
181.098165469539 0.025608137033998713 
182.096524996173 0.07836651925769104 
191.072511926823 0.028901143291623157 
192.081017037402 0.11170170648514116 
193.088555761629 0.3878889244218595 
193.09791261749 0.0810785712038042 
194.096278436444 0.30807666047319676 
194.10540653035 0.049904339063573694 
195.104221788414 0.16893061289007702 
195.113133932012 0.03898033872109115 
196.112261429867 0.043720311776203766 
204.080635666342 0.07921365129568904 
205.088489228149 0.0849842626343494 
206.096593028793 1.0 
206.105431397583 0.15485267762074156 
206.129269708907 0.05401137071320527 
207.104274644686 0.509314500696308 
207.113184928123 0.08439026032332403 
207.132264230425 0.024740704855421874 
208.112275299727 0.6823190459080288 
208.12096671862 0.09888671218952458 
208.140543515711 0.036127590847519896 
209.128541505822 0.02704993000330042 
210.127655442869 0.09676295451202459 
217.088607652042 0.03133957510210444 
218.096457759363 0.09156468419523554 
219.103742777087 0.06540464532200312 
220.112226626728 0.5859276995930459 
220.122024533701 0.09916106412546571 
220.141116761764 0.028546842171895504 
221.119990963659 0.20483273606231428 
221.130065547647 0.03709468691021469 
222.127698964485 0.3255696882457503 
222.137115901173 0.08460892225573055 
223.123745116721 0.0720175222266049 
232.112218156421 0.12463042254881658 
234.127917854949 0.2143102086874942 
234.136658453638 0.043599433001120395 
236.14360194149 0.19426444189615316 
236.153167190204 0.03591112431604113 
249.138293759363 0.08571350164252581 
END IONS

BEGIN IONS
TITLE=larutienineA.mgf
PEPMASS=295.1797476
CHARGE=1+
RETENTION_TIME=205.504
PRECURSOR_MZ=295.1797476
SMILES=C[C@H](O1)[C@@]2(C[C@@]1([H])N3C4=CC=CC=C54)CCCN6CCC5=C3[C@]26[H]
INCHI=InChI=1S/C19H22N2O/c1-12-19-8-4-9-20-10-7-14-13-5-2-3-6-15(13)21(16(11-19)22-12)17(14)18(19)20/h2-3,5-6,12,16,18H,4,7-11H2,1H3/t12-,16-,18+,19-/m0/s1
COMPOUND_NAME=larutienineA.mgf
IONMODE=positive
SKELETON=Eburna
105.070083960961 0.028850523526027478 
108.080545254188 0.027363236914985396 
115.05425496522 0.03690053091007372 
117.057397496659 0.02897839011826448 
117.069808356564 0.04986569018594682 
127.053734088694 0.026544979105144827 
130.065068785185 0.1427563361674006 
130.072626645337 0.025330169502349495 
143.07290716089 0.13264292976146966 
144.0681721416 0.034004730351166995 
144.080762412061 0.27276772299392 
144.088495447618 0.046291270118675024 
154.065043645432 0.034928192288546864 
156.080381995495 0.04984122875091017 
167.072807237481 0.23131793536365144 
167.082094739824 0.04154090505028849 
168.08053671994 0.09643555837359397 
171.091478589445 0.04741364514725613 
179.072487172744 0.0272284737946186 
180.080743507873 0.405936944236481 
180.089760766344 0.06985550077233132 
181.088257164528 0.12666886572496794 
182.096207635508 0.11877312503670641 
191.07290103525 0.031794933346866 
192.080504688589 0.10160966506080292 
193.088638702571 0.3322641196363742 
193.097597462661 0.052120789311778375 
194.096368241366 0.25773657030153707 
194.105508335332 0.06178365485770458 
204.080363325147 0.12963565576317682 
205.088398864853 0.11527742061294995 
206.096273839014 0.30530892967822093 
206.105391930178 0.048923696858387676 
207.1041268238 0.24247197911255738 
207.113439284876 0.041638266123307295 
208.112158386704 0.24818537776381427 
208.121716682767 0.05077495422746626 
217.088170217331 0.04663270385527041 
218.09652121059 0.2407644683116079 
218.106401301401 0.035412089650874314 
219.10406724241 0.03517135263753 
220.112101347158 1.0 
220.120903794355 0.1622921562042239 
220.146110725307 0.11429910576063944 
222.127602067153 0.33480406048417677 
234.127539309783 0.040202282953230764 
235.122644685566 0.07495394236794674 
249.138281075253 0.11513504251671104 
249.148896812499 0.0245439253817894 
251.153634877182 0.03320622700325754 
END IONS

BEGIN IONS
TITLE=leucophyllidine.mgf
PEPMASS=573.3586646
CHARGE=1+
RETENTION_TIME=174.896
PRECURSOR_MZ=573.3586646
SMILES=CC[C@]12CCCN(C3=NC4=C(C(C=C)=C3C2)C=C([C@]5([H])C[C@]6(CCCN7CCC8=C(N5C9=C8C=CC=C9)[C@@]67[H])CC)C(O)=C4)C1
INCHI=InChI=1S/C38H44N4O/c1-4-24-27-19-28(33(43)20-30(27)39-36-29(24)21-37(5-2)14-9-17-41(36)23-37)32-22-38(6-3)15-10-16-40-18-13-26-25-11-7-8-12-31(25)42(32)34(26)35(38)40/h4
COMPOUND_NAME=leucophyllidine.mgf
IONMODE=positive
SKELETON=Eburna
124.112091873157 0.06749591583450668 
158.096308195375 0.07256052833723074 
237.139092856842 0.029910882504316 
253.172013243117 0.04063600155175105 
279.149428776826 0.03622120798564476 
295.180657206344 0.029016505128969985 
307.180889779382 0.2486975337359025 
307.191724681765 0.048174636907255056 
309.196531170644 0.03441079054297377 
319.180808448662 0.04053383945558885 
321.19751696254 1.0 
321.237551535125 0.05535031089115951 
399.242989334817 0.0631374118832601 
401.258276980276 0.039126691818222564 
403.276831570439 0.025506833732347675 
405.290380540788 0.027441205790937093 
418.285870309387 0.03624612255433061 
430.2855834794 0.08346374327484386 
462.254125982332 0.06890989488586748 
573.359159723179 0.2706299274664573 
END IONS

BEGIN IONS
TITLE=N-oxy-14-delta-vincamine.mgf
PEPMASS=353.1867621
CHARGE=1+
RETENTION_TIME=140.426
PRECURSOR_MZ=353.1867621
SMILES=[H][C@@]12C3=C4C5=CC=CC=C5N3[C@@](O)(C(OC)=O)C[C@]1(CC)C=CC[N+]2([O-])CC4
INCHI=InChI=1S/C21H24N2O4/c1-3-20-10-6-11-23(26)12-9-15-14-7-4-5-8-16(14)22(17(15)18(20)23)21(25,13-20)19(24)27-2/h4-8,10,18,25H,3,9,11-13H2,1-2H3/t18-,20+,21+,23?/m1/s1
COMPOUND_NAME=N-oxy-14-delta-vincamine.mgf
IONMODE=positive
SKELETON=Eburna
105.070077963399 0.06828481549005401 
106.064859917935 0.045028810763245816 
107.073366209972 0.04898426023464194 
108.080851536464 0.18392476858334883 
115.054305005519 0.07022866115326169 
117.069943813144 0.0953440939290509 
121.065135233715 0.09569000377638728 
122.096668662964 0.062119655463384396 
127.05429491229 0.058941888807980646 
128.048526488305 0.0418288555739657 
130.065136100962 0.09153876036925479 
132.080895208697 0.06834961034549426 
143.073198703683 0.12422998740601945 
144.080956618815 1.0 
144.089014752335 0.15944044420432965 
150.091521775053 0.12524484179828307 
154.064981377821 0.13837127488304946 
156.080714388533 0.04375542742741296 
167.07321999847 0.16491512163038746 
168.080943553804 0.22107018117624527 
171.091840779977 0.20378412074320748 
180.081137759172 0.08362641591936962 
181.088811096925 0.04223139316166732 
192.080502489415 0.04759194780273887 
193.088832277112 0.10970589351310622 
194.096577334499 0.08444836739008274 
204.080719818618 0.04578098037904809 
205.088081111107 0.04542553018489842 
206.095908946546 0.052610242501883675 
208.112049064627 0.07846917185091762 
217.089112330646 0.1893166907283368 
217.097837090046 0.03663377535735646 
218.096937251478 0.20688592600087813 
218.105631715662 0.036952618084377865 
220.111615952222 0.03875574363208953 
221.108431681901 0.04981846237796758 
230.095986440383 0.06317668252508406 
231.104084380479 0.11219404487215394 
232.111848323153 0.11395420272152848 
238.085783465726 0.038450452534064275 
245.107276969431 0.07619506395465443 
246.127607233786 0.11443197895341672 
247.123074815174 0.061961733813482606 
247.135257606841 0.07164587244484034 
251.093554342081 0.0907436591927927 
252.101605744225 0.05519759178518319 
262.086691006153 0.03957462340023019 
276.101624402075 0.12413949866200248 
289.097411616532 0.049149662383749605 
290.117579421473 0.11657512390706111 
305.128743182014 0.1664144015871668 
305.138723642817 0.04808385386646044 
306.14788175458 0.0776553513576022 
END IONS

BEGIN IONS
TITLE=vincamine.mgf
PEPMASS=355.2014637
CHARGE=1+
RETENTION_TIME=228.204
PRECURSOR_MZ=355.2014637
SMILES=[H][C@@]12C3=C4C5=C(N3[C@@](O)(C(OC)=O)C[C@]1(CC)CCCN2CC4)C=CC=C5
INCHI=InChI=1S/C21H26N2O3/c1-3-20-10-6-11-22-12-9-15-14-7-4-5-8-16(14)23(17(15)18(20)22)21(25,13-20)19(24)26-2/h4-5,7-8,18,25H,3,6,9-13H2,1-2H3/t18-,20+,21+/m1/s1
COMPOUND_NAME=vincamine.mgf
IONMODE=positive
SKELETON=Eburna
103.054054211477 0.03512645723960972 
105.069658600476 0.09218534010601367 
107.085246371625 0.07577645970539139 
108.080291805707 0.052783553684550316 
110.096183303755 0.1823682413297886 
112.112222427526 0.030060732949866924 
115.054000332252 0.05783242099411351 
117.057143784543 0.038909541678435175 
117.069558196087 0.14528781649802217 
118.064584971143 0.03797596684793898 
120.081132744544 0.03164760542711075 
121.064297176076 0.029534056928174023 
122.059788740384 0.03660052394124566 
122.09647445335 0.032068484470805896 
123.080368029067 0.07049310403058168 
124.075822310517 0.03885051983160953 
124.111816635267 0.1475440814514936 
127.054166975222 0.0546316719942495 
128.049244241031 0.02530084030850665 
129.069310435714 0.054495194714559624 
130.064843696228 0.0917647375287488 
132.08047727025 0.030328658809042397 
134.095888834336 0.1637343292102475 
135.080294289877 0.04029244170667958 
143.073185852505 0.14024051085018657 
144.080612294627 1.0 
144.088753387953 0.16116461110139743 
144.108353963947 0.03677179863081868 
152.106726900081 0.17621499524029416 
152.114084247432 0.027941490736880178 
155.072323073468 0.02658297205895759 
156.080673556784 0.07514880618806592 
157.08869213378 0.03732410383780238 
158.095878190698 0.0533811097213069 
162.091049129129 0.03141307222947013 
165.069639227961 0.028342000929524973 
167.072656762273 0.0630990242976632 
168.080919488742 0.09572911669722743 
170.059395784151 0.03461309643896294 
170.095949157146 0.05263102640777454 
171.090872493242 0.024747481540261733 
179.084966964153 0.027189942898474057 
180.080364621616 0.1332903689556593 
181.088208098279 0.06947795665903023 
182.095959312616 0.08521203480787078 
191.073088868448 0.06359921184651182 
192.080039844325 0.045866475680667824 
193.088153826076 0.1269299224847906 
193.099786443808 0.04139490016573042 
194.095851852737 0.10277138916161929 
195.104256001837 0.07281081178015988 
196.112006060604 0.04524821454990518 
204.080525954844 0.17412804729518694 
204.090438985651 0.031958495663960286 
205.088164804841 0.14898753510002857 
206.096258931348 0.2250111707381953 
206.10516440423 0.030404470387456497 
207.103964939123 0.10411337215818663 
207.116190872862 0.031399607567110355 
208.111762723694 0.23730436264026936 
208.120978487454 0.03314996136942042 
209.120120153821 0.061994466188155586 
210.126548052379 0.07237146926216341 
217.088527090216 0.05659506933329747 
218.096026727171 0.18264792074828254 
219.103902863599 0.16832255114255357 
219.113838684394 0.027974076415321323 
220.111664630902 0.25734093092971927 
220.122359213539 0.03684721418975161 
221.11942809653 0.08982536288086987 
222.127134272285 0.19692106061489123 
223.122761988924 0.03329589828426428 
224.142764393666 0.0376163139104458 
231.103597531873 0.040429972547630685 
232.111649645986 0.11967746081275153 
233.119526625374 0.0463279504572157 
234.127375024808 0.2776632310108659 
234.13711926448 0.07241500151682934 
237.077918382118 0.02928963818763553 
237.137440446963 0.05305750950073152 
238.085395703937 0.08668724473555613 
239.093778440423 0.115334621517457 
247.123485732191 0.04846011934383308 
248.142906518817 0.07911191510537856 
249.138497798405 0.05050776422345064 
250.085776659454 0.11869764883981238 
250.158632539849 0.04074592884501292 
251.09408620891 0.13674261274226304 
251.103843921967 0.02868694136968942 
252.101397771613 0.172850174622175 
252.112663530571 0.02963973435312086 
253.109390318982 0.10733211389221398 
264.101644931026 0.5135509647184003 
264.111977552044 0.0862649983038411 
265.109351605659 0.382965707701757 
265.120137576248 0.06498089392805 
266.117146107112 0.3252227796383222 
266.129199449918 0.05643644485092482 
267.124971064998 0.15970815605857502 
267.135928659728 0.034404132650087654 
268.133186711086 0.07417979135003788 
276.101521377999 0.04163148070936803 
277.169714091016 0.04145213618885796 
278.117313762624 0.2934358650186279 
278.128146780205 0.05283363146875406 
279.125177930317 0.23406933180305428 
279.135426674845 0.04682094987887782 
280.132986514756 0.4591459578366278 
280.143220945528 0.081966244196073 
290.116583289115 0.11694911074946314 
292.132944754131 0.22824956400496743 
292.144251269859 0.0376007346534979 
294.148373163275 0.22841776020347931 
294.161697960321 0.03199605773814595 
307.143527864903 0.13827505869307594 
308.163642246897 0.058275499544951204 
END IONS

BEGIN IONS
TITLE=vincamone.mgf
PEPMASS=295.1804314
CHARGE=1+
RETENTION_TIME=260.217015625
PRECURSOR_MZ=295.1804314
SMILES=CC[C@@]12CCCN3CCC4=C(N(C5=C4C=CC=C5)C(C2)=O)[C@]13[H]
INCHI=InChI=1S/C19H22N2O/c1-2-19-9-5-10-20-11-8-14-13-6-3-4-7-15(13)21(16(22)12-19)17(14)18(19)20/h3-4
COMPOUND_NAME=vincamone.mgf
IONMODE=positive
SKELETON=Eburna
124.112171338027 0.02832251285285806 
130.065192612904 0.07427955690267084 
144.080835101314 0.11275016488168028 
152.10710274337 0.048462344387247364 
167.072959049504 0.23798704663582576 
167.082358479147 0.03213065596916743 
168.080976806521 0.13059947912665518 
179.072914592119 0.02662192083942882 
180.081067986405 1.0 
180.090108295016 0.05327748292687431 
180.099761816894 0.053181306983916495 
180.112347096678 0.060099721407384524 
182.09644372392 0.11824277727021 
192.080601171459 0.03666868558115888 
193.088542033256 0.06024361714743098 
194.09655816329 0.2810472945831436 
194.105610849635 0.03160628771520755 
196.075745894555 0.038892316024630974 
196.112466800806 0.027644808208068864 
206.096467742773 0.10040862961205739 
207.104441388404 0.028844913846643165 
209.083612306281 0.046745014176912084 
210.091444929867 0.1740865895610581 
218.096167211479 0.036321568567974166 
220.075669291031 0.05060988912016102 
220.111957700381 0.03767020784488406 
222.091464841836 0.08025903870875635 
224.106668491299 0.03441035882276074 
234.091487850876 0.6322005981130348 
234.101286214964 0.09092425949414597 
234.12694686107 0.038333196504343525 
248.107150139576 0.07480763987137415 
264.138359479883 0.16611259168503967 
END IONS

BEGIN IONS
TITLE=Vincine.mgf
PEPMASS=385.212325
CHARGE=1+
SMILES=CC[C@@]12CCCN3[C@]1([H])C4=C(C5=C(C=C(OC)C=C5)N4[C@](C(OC)=O)(O)C2)CC3
INCHI=InChI=1S/C22H28N2O4/c1-4-21-9-5-10-23-11-8-16-15-7-6-14(27-2)12-17(15)24(18(16)19(21)23)22(26,13-21)20(25)28-3/h6-7,12,19,26H,4-5,8-11,13H2,1-3H3/t19-,21+,22+/m1/s1
RETENTION_TIME=139.114
PRECURSOR_MZ=385.212325
COMPOUND_NAME=Vincine.mgf
IONMODE=positive
SKELETON=Eburna
105.069942286334 0.06885470747030686 
107.085452701246 0.05399112421946186 
108.080696100402 0.05002876016573511 
110.096393139673 0.14304692425709994 
112.112126663438 0.045433114274079596 
115.05395937787 0.025339688922392207 
117.069948551701 0.04945685284045179 
121.064813113657 0.07412262888116045 
122.060043714434 0.054631104358467554 
122.096668489531 0.047983678473042524 
123.080483476658 0.04620328599512832 
124.07567546824 0.03577501469904959 
124.112201506754 0.10139250236832789 
130.065147219146 0.04864077649257818 
131.073013459714 0.2073750155496275 
132.080558432006 0.04080543880783 
133.0645526734 0.03766412166666489 
134.096518216225 0.10926954495144796 
135.080451775709 0.038686861867209904 
136.075781202702 0.05891301990245998 
142.065101509464 0.032373447296597586 
143.072954991456 0.134246207219918 
144.08083753199 0.030526922385828523 
146.060237432317 0.052303072606394004 
146.096380209947 0.03471333397835492 
147.067776153628 0.026594275397990724 
147.080293749795 0.026051035206483105 
148.075606171686 0.03105499836795363 
150.091337618601 0.024939499987772944 
152.10710858692 0.1626190410371947 
159.067986915148 0.306803453771622 
159.077644040384 0.04207715911229436 
160.075692939085 0.09401357947640551 
160.111961087968 0.04418794794888452 
161.08364799857 0.08032584045072123 
162.091319460812 0.056276148625731895 
172.075526028028 0.06826637335904914 
173.083608975971 0.06937281574249606 
174.091470164537 0.8882343278361192 
174.100097664847 0.08328066838412523 
174.122163781116 0.02656296084045604 
181.088366553252 0.024712799709102354 
184.075679293049 0.038477407055756446 
185.083511611082 0.03573929042663925 
186.091367507512 0.10339468303745626 
187.099259001337 0.10596877103186796 
188.106873877561 0.056792582322651844 
194.096697026405 0.02713335573188508 
195.104465145932 0.03629469122426869 
196.075859503318 0.059378020216110584 
197.083402639961 0.053573171496708795 
198.091377499091 0.08023450964714839 
199.099148363138 0.036229010660930934 
200.070503651573 0.02633243561922604 
200.107083320698 0.06848965006161374 
202.122585781681 0.057100119399874756 
206.096127405501 0.03091398849806015 
207.104096662353 0.03840311439103406 
208.112049875112 0.02801317226222892 
209.083390310229 0.037560271419412525 
209.119812604665 0.04027276438885445 
210.091342382975 0.1141138785608647 
211.099168890442 0.1011758973862804 
211.110762979507 0.036150571428875206 
212.106987289054 0.07406569332200648 
213.114891443962 0.026839613965213487 
214.086403841876 0.039334178240728435 
214.122643813871 0.02490788506991219 
220.076359737086 0.03304784926058199 
221.083795918655 0.03697084750520182 
221.119799938905 0.0302138033910415 
222.09105014184 0.05881804756219054 
223.099196812972 0.09865353516129616 
223.110653207674 0.02564105133556681 
224.106970780705 0.16038999528992479 
224.117019931337 0.0249139029086575 
225.114871582259 0.060724405313134944 
226.122494095057 0.06496206422501188 
227.094205934575 0.025925473957962315 
228.138311194736 0.04377658720496908 
234.091345049289 0.07879921257749563 
235.099140096189 0.09684177762278358 
236.107065725205 0.16235485685305312 
237.114760269892 0.0936815882841398 
237.125606282721 0.02539122065373292 
238.086226478474 0.02625074026859124 
238.122723783435 0.3574083209910934 
238.133179833794 0.03673834734837651 
239.094148327552 0.02622519635059546 
239.118016519373 0.05973292385094898 
240.102096741095 0.02943491324636883 
240.138442130465 0.08751045945029277 
247.098834300577 0.026675080299871243 
248.106840901851 0.07072393217916999 
249.114707416149 0.08218161539631083 
250.122542028206 0.17450017915297325 
251.129906806808 0.06002119002229578 
252.102110759841 0.06614795590178803 
252.138410734302 0.16401954415403117 
253.109585560412 0.035484967630194236 
254.081345517675 0.1765516401800248 
254.1539136373 0.0957857585613325 
262.122624653373 0.055395587839712844 
263.117998471224 0.036999182381979655 
263.129972422735 0.0323666160927215 
264.138196604685 0.16246965829095505 
266.081159545766 0.04857129490918487 
266.117678324781 0.07580671999081376 
266.153992222827 0.034484501938786036 
267.088945812849 0.09891846360111298 
267.125449203883 0.13637113691433722 
267.149378863039 0.02835951695680234 
268.096941905825 0.2732319409018465 
269.104619873177 0.11372675928751343 
277.133231817434 0.05720354435816986 
278.117437707725 0.04671214423249696 
278.141184975933 0.027391851676223263 
278.153917637406 0.047293461075959796 
279.125395773239 0.02597109151474105 
279.149419649337 0.042344081094098374 
280.096945445427 0.6120700195739243 
280.107071306299 0.06357591461048316 
280.133140227853 0.03647163801105113 
280.169816579092 0.029675228087783896 
281.140901044643 0.029524277088514326 
282.112644235003 1.0 
282.123278314494 0.08683278807744937 
282.151375025789 0.03306996428635981 
292.132920315247 0.03485163263114583 
294.112698476454 0.7504247573460694 
294.123563849608 0.08173989965307053 
294.151316698019 0.0346127265594017 
295.1202613479 0.4283855924859947 
295.132178168965 0.04387865655471289 
296.128095472285 0.2562073049757745 
296.139545425785 0.037225569010044264 
297.135704652767 0.15406403469507313 
297.146995768277 0.028050704012707636 
298.143948428156 0.11249397950319871 
306.112424886248 0.09675733118420647 
308.1282200374 0.28146287705853146 
308.139492781277 0.03561529211503641 
309.135740439558 0.1706615210246912 
309.147856596159 0.029154833887449404 
310.143946409592 0.41108457189881953 
310.155428088074 0.05672145274454913 
320.128181613081 0.03333191570347578 
322.143731445998 0.1132293306908713 
323.13928364501 0.20137339094581075 
323.150239507509 0.061946154165120566 
324.159442141577 0.12655496275000347 
337.154640621312 0.0751030528304575 
338.16280193966 0.05754249965711078 
338.174392599602 0.040231989810076585 
END IONS

BEGIN IONS
TITLE=arbornamine.mgf
PEPMASS=311.1750546
CHARGE=1+
RETENTION_TIME=126.224
PRECURSOR_MZ=311.1750546
SMILES=[H][C@]1(C[C@@H](O)N2C3=CC=CC=C43)/C(CN5CCC4=C2[C@@]15CO)=C\C
INCHI=InChI=1S/C19H22N2O2/c1-2-12-10-20-8-7-14-13-5-3-4-6-16(13)21-17(23)9-15(12)19(20,11-22)18(14)21/h2-6,15,17,22-23H,7-11H2,1H3/b12-2-/t15-,17+,19+/m0/s1
COMPOUND_NAME=arbornamine.mgf
IONMODE=positive
SKELETON=Arbornane
103.054507335522 0.035410694523599406 
105.070103462375 0.037808500427042105 
106.066235966645 0.07501318226093931 
108.081047672465 0.04620531647687895 
115.054252017845 0.0565275872357825 
117.057519465192 0.04378204591847206 
117.069853560288 0.0371929993511486 
118.065518105466 0.04744871942623223 
120.081363687805 0.0319228340440177 
127.054661841369 0.036067455286876 
128.050279026185 0.02984988009668044 
128.061582984623 0.05223175677702403 
129.070952741686 0.0759912428740802 
130.065434298885 0.28668631112977505 
130.072803869059 0.04350100327267389 
132.081104555537 0.03221171500425463 
142.065662180184 0.025500026048779104 
143.073181593455 0.10056565318497633 
143.08243188932 0.028927982229996513 
144.081284156073 0.17338027902189204 
154.065601856552 0.08788439709706092 
155.073024103343 0.03553230285415684 
156.081074533261 0.10264481937145087 
167.073231313648 0.21395219970099158 
167.082530747867 0.037763586017015384 
168.081145369884 0.11326609064659385 
178.077536520233 0.027579034363865135 
180.081093463646 0.2459710432299223 
180.090196721367 0.044159232239863476 
181.089000037342 0.08529246464075577 
182.083922413098 0.025173413826691946 
182.096334934574 0.054380938924295935 
191.073321636931 0.12695519767865912 
191.08146599449 0.028514232895029735 
192.08103262577 0.17807774218655031 
192.09059447737 0.0284157921907339 
193.08872685126 0.1902043171509898 
193.099067175261 0.035744166257516655 
194.096880349575 0.16830834492372443 
194.106004251262 0.031415182807174306 
195.091719544922 0.025832992594253167 
195.104268639567 0.035931575382798654 
204.080878063648 0.38749382328192516 
204.090675359025 0.07216530081603721 
205.088822970079 0.25451338512567356 
205.098072306438 0.05499404035508433 
206.084127918177 0.1383055190258704 
206.096849683252 0.45451993678829605 
206.106796164657 0.08035685248655332 
207.091972568362 0.07320827814412711 
207.104084757957 0.1178377303146219 
208.099626576626 0.04767209165381331 
208.112230547042 0.08267432553396051 
216.081283628127 0.0764794917172776 
217.088859618798 0.39403190896504253 
217.0987407995 0.06776188889958906 
218.084544548262 0.07381892467482441 
218.096655558917 0.30314235105229176 
218.107217325413 0.05751321778200172 
219.091772958077 0.22941049244822215 
219.103750611208 0.12629868950960413 
220.099800593848 0.11702603457067666 
220.112011444703 0.32465548516245757 
220.122365062832 0.059890855615564224 
221.107598397006 0.2502667237108617 
221.118918994545 0.11318147158236072 
222.115570357897 0.025264758212074953 
222.12798006592 0.03895062098710665 
228.080882076049 0.03654419530585214 
229.088473410906 0.025315403353504035 
230.096817778546 1.0 
230.106116577353 0.14658113721075988 
230.131727715674 0.05352853604282735 
231.102591380608 0.5140417917139622 
231.114329400418 0.07007277081652662 
232.099697562371 0.08833093631941802 
232.112029658876 0.20496947556703457 
232.122005016819 0.040720580272075556 
233.10785556193 0.2460020649577615 
233.118769179707 0.07288375771793752 
234.091482622812 0.03519219262835339 
234.115511215944 0.0824621463878237 
234.127801089496 0.07230217530986206 
235.123298078888 0.21601557874861665 
235.132474934699 0.04437550025496229 
236.107041100552 0.05201633337385366 
236.135610325926 0.03512073214435128 
237.138632651222 0.03667037401310648 
242.097156594628 0.05183190012424479 
243.091082854445 0.024879141558537925 
243.103802174088 0.05050663296638761 
244.112356390165 0.17433855835005457 
244.121562476936 0.03517927874877452 
245.107872340597 0.17382752866549736 
245.119037871793 0.0584424093068341 
246.115549033939 0.03662037614437023 
246.127946667346 0.12018433063320635 
247.123353426915 0.13909479703264938 
247.133559484012 0.031315155495424095 
249.138747497863 0.06751624101909139 
258.115624789666 0.045133069793362145 
259.123339800913 0.2093554584821929 
259.132989183718 0.039227337956860064 
271.12338905253 0.035999965268294534 
273.139126360143 0.18586316971016395 
273.150019934021 0.03520845338136833 
END IONS

BEGIN IONS
TITLE=dippinineA.mgf
PEPMASS=401.2061637
CHARGE=1+
RETENTION_TIME=196.02
PRECURSOR_MZ=401.2061637
SMILES=O=C([C@@]1([C@@]([C@](C2)([H])[C@@](C)([H])O)([H])NCC3)C4=C3C(C=C5)=C(C=C5OC)N4[C@H]([C@@]2([H])C1)O)OC
INCHI=InChI=1S/C22H28N2O5/c1-11(25)16-8-12-10-22(21(27)29-3)18(16)23-7-6-15-14-5-4-13(28-2)9-17(14)24(19(15)22)20(12)26/h4-5,9,11-12,16,18,20,23,25-26H,6-8,10H2,1-3H3/t11-,12+,16-,18-,20-,22-/m0/s1
COMPOUND_NAME=dippinineA.mgf
IONMODE=positive
SKELETON=Chipiine
105.03338714091 0.0385647734342751 
105.069764500927 0.18061481408352342 
105.074475007389 0.034053435706273234 
107.049481811094 0.04265948121355399 
108.080607856619 0.049938015693856495 
109.064432421728 0.044425156020892455 
112.075069607124 0.05056640603000292 
118.065130493399 0.03360652587737112 
120.080238796539 0.04221227322390613 
121.06483145466 0.07933242471606815 
130.065926675324 0.0427417073214365 
131.07216481156 0.09914388111204682 
133.065168311083 0.0413353493416942 
135.044172450436 0.05910155553773953 
135.080547243816 0.039399126587788796 
142.064387432185 0.03526930209845533 
143.072528133518 0.06616504986241538 
146.060595029088 0.22193035230011135 
146.069489234186 0.04081522448522547 
147.067422424795 0.1587139465682692 
147.076186864611 0.04422972821654156 
148.07625967312 0.038445939812609284 
155.073509720586 0.0439979248012096 
158.060701899999 0.1172204395154424 
159.068290383403 0.14941914973831424 
159.079524191206 0.036765804010328286 
160.075355673579 0.4271583359450006 
160.083320456787 0.07490463825481877 
161.083530648465 0.649353024310702 
161.093037613513 0.11877876008860012 
162.091389486922 0.30944728948691835 
162.099755552421 0.07979145974863061 
167.07307834627 0.0439486951491897 
170.059663315079 0.04100008414758824 
172.074672187219 0.07875458919081162 
173.083413858239 0.2896933118569252 
173.09257335167 0.05248791952045151 
174.091294707155 1.0 
174.100444057275 0.1897004345858514 
174.112597192361 0.03861546076105198 
174.122608899226 0.03796288627552836 
180.080971774696 0.04329038935155338 
181.090070873686 0.036533669305278835 
183.067499804634 0.11127014489949663 
184.075777160866 0.1367861120700108 
184.085106764721 0.033738147282132286 
185.08396243604 0.05710311657488837 
186.091389713665 0.4169960238608106 
186.100297220076 0.08062170490964735 
188.070548900617 0.058674622478802424 
188.106991565079 0.09651330823924154 
189.10176190891 0.06289097984234585 
190.085657107367 0.05188603236170476 
196.07548668883 0.1867012356443883 
196.084234527039 0.046271764906215186 
197.08325302035 0.13192373975735017 
198.091252409499 0.4953311340113288 
198.102396972834 0.07235089146750082 
199.098777636503 0.1216175154198799 
199.10758122223 0.034288121342147405 
200.070504274511 0.17066777405776234 
200.106896509044 0.1456908815155577 
201.101870613295 0.08694171885031866 
202.085059871251 0.07994077202430605 
205.087007096752 0.040392929482333306 
207.103862548225 0.033658704007876745 
208.076710648441 0.05897162371053759 
209.084082790175 0.12089805354039382 
210.090811740649 0.5113383905813008 
210.099836770188 0.06954774978085185 
211.099253894612 0.27142990605286194 
211.108805039549 0.08368553847499391 
212.069434894105 0.05400565710321596 
212.107335331745 0.5429841782656718 
213.077993074402 0.0496434660060308 
213.113297628962 0.05518319327508377 
214.086635795308 0.1063137856939824 
214.121616462475 0.04106697154155068 
219.067650189012 0.04089738433516448 
219.103192429358 0.06969451112570259 
220.074777141463 0.040012045694128154 
220.113097792423 0.03540715174990542 
221.083567591986 0.0699382409708644 
222.091288351737 0.16894460372117862 
223.099583680882 0.1901019908524283 
223.109625130117 0.051041674258722684 
224.069607388071 0.06964548024751317 
224.107194335242 0.6031298264770717 
224.117264641774 0.09461809915236212 
226.085976130671 0.22500975648218025 
226.109390344555 0.034512570125750944 
226.123116652444 0.13558575003660753 
227.117869528369 0.1814327352670493 
227.127489074617 0.05726687308224665 
232.0959716268 0.046979797290447656 
233.082991219359 0.0387392305995085 
234.091555872662 0.2840293178148395 
235.098429324736 0.10939911996199445 
236.107100149986 0.4353905541350589 
236.118321661096 0.0792569237894508 
236.1301028779 0.036429048012493595 
237.114263942825 0.16936742878761876 
238.085833783947 0.17695499031640155 
238.122215041064 0.23880631676730144 
238.130666431694 0.04831896971548176 
238.134622808288 0.04322595350150041 
239.094426230362 0.11169943011542796 
240.101827204029 0.14244457357381435 
240.13872023757 0.09754630270736582 
246.090969512252 0.06868328239201776 
247.099011695892 0.09095261033107106 
248.107251289009 0.17092283401126251 
248.116694452626 0.045801830441947106 
249.113716189408 0.08284946261494924 
250.086105486555 0.09871539099143749 
250.110409103367 0.09294624559301853 
250.122379549959 0.3650504587368718 
250.133154483543 0.08471710839733297 
251.093797798633 0.04148168000991218 
251.117437297667 0.20399227299862913 
251.12908856186 0.20841336740758507 
251.140952383371 0.05106148538382895 
252.102879774146 0.11373050111545248 
252.138555182102 0.29761756312559917 
253.096816140306 0.04947692666504555 
253.10937559564 0.033690342175897614 
253.14498859936 0.04604059094134648 
254.080885119286 0.13332854067542022 
254.118189656516 0.04715571213043803 
256.096708056388 0.03953707562615413 
260.106552107175 0.03948330730500453 
261.115094577902 0.0606876381892234 
262.086840902705 0.05510484325689596 
262.123242424612 0.2261984239885559 
262.134329318586 0.04540749629121161 
263.131724683842 0.08898855924089599 
264.102830657156 0.10165310256133332 
264.137305514425 0.07282509956912459 
265.108983225698 0.04982610602728634 
265.133048019595 0.0983909921000654 
265.146958341528 0.07177196268617653 
266.082563582097 0.049004540656868 
266.11736160194 0.09885300874008532 
266.142295869978 0.03697123676414756 
266.153852886954 0.09461170526081446 
267.088640997857 0.07841528226215219 
268.096642111921 0.10888041965131094 
268.133529139412 0.11859486116641808 
269.104461419533 0.0991660443941473 
271.118613258259 0.03940777324941544 
276.138360744009 0.2551904485198969 
276.146593906044 0.04876859612006734 
278.117468332518 0.18269229877296916 
278.153391586064 0.09460242914872456 
278.160479648563 0.04417983598508666 
279.124011567694 0.08146586423879892 
279.148754543697 0.09767206028412731 
280.095563997623 0.05635731716286135 
280.132793931035 0.16120912133353388 
280.144592516393 0.0441635696599576 
281.103555188926 0.058740416616697134 
281.140656081251 0.08809086349339705 
282.113057045174 0.2758189978751077 
282.121376649044 0.09562889720941418 
282.148370713435 0.03611554855282713 
284.128458833983 0.05145830420744567 
292.095970936818 0.0446860135444488 
292.13370324237 0.06374564105554203 
294.148991013392 0.2125739024537304 
294.15746910236 0.05711553993929447 
295.120137838991 0.03471250347025979 
295.156976988819 0.09307597864638996 
296.129657472023 0.08291976229300191 
296.164033640329 0.48414844959725106 
296.175361461523 0.1140849811131732 
304.132927410169 0.04875726601172898 
305.165054145985 0.03457356056274197 
306.148975676551 0.10267307734356003 
307.144879205637 0.04318464167372866 
308.126460409528 0.043082008119248394 
309.159504506317 0.24916369223715307 
309.170240573819 0.06634364814911747 
310.143257344036 0.10514151702862276 
312.157967910081 0.06789911963070473 
322.143498641061 0.10750911212367972 
323.175331962245 0.3933091403495636 
323.186366347557 0.07045472164044066 
326.174046184886 0.046249999171775705 
336.16033306913 0.0456655047231975 
339.170063689217 0.0456531476167349 
340.151999504403 0.0547948885972067 
354.170547378769 0.47358627082404336 
354.184181292516 0.09647865533479144 
383.196424141399 0.03617481628328716 
END IONS

BEGIN IONS
TITLE=Akagerine.mgf
PEPMASS=325.1919208
CHARGE=1+
RETENTION_TIME=931.885
PRECURSOR_MZ=325.1919208
SMILES=O[C@@H](C[C@H](/C(C=O)=C\C)C1)N2C([C@@]1([H])N(CC3)C)=C3C4=CC=CC=C24
INCHI=InChI=1S/C20H24N2O2/c1-3-13(12-23)14-10-18-20-16(8-9-21(18)2)15-6-4-5-7-17(15)22(20)19(24)11-14/h3-7,12,14,18-19,24H,8-11H2,1-2H3/b13-3-/t14-,18?,19+/m1/s1
COMPOUND_NAME=Akagerine.mgf
IONMODE=positive
SKELETON=Akagerane
103.057031930419 0.153027263598287 
104.060770882137 0.027919119324395194 
105.07275966311 0.16842285974991708 
106.07233177942 0.0316110345492558 
107.053066066405 0.028404939572314502 
109.067607455429 0.041900385448439506 
115.057126213423 0.1848352848767341 
116.06003638489 0.0616814512051437 
117.065969235545 0.1655178860775271 
118.068412802672 0.04802591723323746 
119.088187068496 0.1027761576975629 
121.068902406564 0.031133345405543963 
125.063000817469 0.06308702104092244 
127.056761356683 0.1095527245960317 
128.059705283515 0.2372042406383534 
129.071343450032 0.18135684200376745 
130.068479523018 0.9151831174053839 
131.074474497225 0.26246522380232307 
132.082482937937 0.08260267062384324 
133.06981866266 0.06000901888203491 
140.058784598098 0.028765906509351652 
141.070599797102 0.03344358436476263 
142.068896476105 0.06590680331781976 
143.07620762988 0.33618846994137136 
144.083875330826 0.8174311354854792 
144.189559416457 0.03451868919309815 
145.087381653291 0.11133316008927163 
151.057955261736 0.02545875184316787 
152.064974743792 0.08450504328357858 
153.070936918723 0.05516973018609234 
154.068450467565 0.18619217391508844 
155.075727393054 0.14022415508243988 
156.083792225643 0.4210696723335504 
157.090817688741 0.2468794315399829 
158.098243612929 0.2670324585684083 
159.100736657322 0.03597581481542452 
165.072615544408 0.06540847186978944 
166.071015761389 0.08433054496624093 
167.076376002124 0.5872251122362829 
168.083260684651 0.45477365780927004 
169.089872894596 0.11957832316994302 
170.096557843617 0.15189567023110442 
171.101295168981 0.026797462013691768 
177.070684611366 0.026898057236388776 
178.07751797337 0.11323958948212569 
179.080939542176 0.11178516246922174 
180.084236641777 1.0 
181.090258204572 0.42818188980266636 
182.098678620011 0.27575566943151647 
183.102289830261 0.05849579863552663 
184.107808703194 0.027685939480597055 
190.071837931134 0.02953110632403538 
191.07659257416 0.1928411007034022 
192.083556568887 0.21365220039556085 
193.091596493233 0.2606144128084587 
194.099315296002 0.4184444956598835 
195.105869572247 0.14587524311002095 
196.115360387358 0.4655805008713157 
197.117462096061 0.09073412759072384 
202.079579596919 0.026406457613606164 
203.081593294211 0.03193564375063203 
204.084479404595 0.4534563366171314 
205.090813143081 0.3632368262001463 
206.099349634234 0.5360836416058548 
207.105945376386 0.2614199976953053 
208.113644900838 0.1683888772608938 
209.117420659771 0.044098664452905445 
210.129997184757 0.07487265385601302 
212.111405399765 0.0408101531210976 
216.084046043587 0.044922816242924234 
217.091643418554 0.21226321025165854 
218.098896309294 0.23070623608070193 
219.10578213738 0.10193700187432829 
220.114972042592 0.4547476712000169 
221.121476889915 0.2737047850636966 
222.12864961604 0.1430116010808548 
223.131545575696 0.03102227322861866 
230.099461827689 0.11625203718554437 
231.106645246835 0.120053372497466 
232.113947226858 0.09673697553495962 
233.120537394581 0.0401213551134827 
234.114553035429 0.0352796206190222 
234.125076979981 0.06109463594053888 
235.134627356498 0.07124763945167079 
236.146077650047 0.3118784085377182 
237.149456511699 0.07463007297416155 
238.127254064439 0.04624405306442092 
244.114898151096 0.025630234067621625 
246.130590535507 0.10511307114686785 
247.13379275442 0.03298807202876635 
248.14371749853 0.04713369463735158 
249.121265598652 0.06407686392188496 
264.141232798054 0.6037130278750479 
265.144867863086 0.14950619563095724 
276.141220791228 0.0699649474741251 
282.151022178232 0.039347377469021845 
END IONS

BEGIN IONS
TITLE=12MeO_voaphylline.mgf
PEPMASS=327.2075067
CHARGE=1+
RETENTION_TIME=147.079
PRECURSOR_MZ=327.2075067
SMILES=CC[C@]12CCC3=C(C4=CC=CC(OC)=C4N3)CCN(C[C@@H]5[C@H]2O5)C1
INCHI=InChI=1S/C20H26N2O2/c1-3-20-9-7-15-13(8-10-22(12-20)11-17-19(20)24-17)14-5-4-6-16(23-2)18(14)21-15/h4-6,17,19,21H,3,7-12H2,1-2H3/t17-,19-,20+/m1/s1
COMPOUND_NAME=12MeO_voaphylline.mgf
IONMODE=positive
SKELETON=Quebrachamine
103.054183009505 0.034806771221472854 
105.069673973531 0.12409990747343316 
106.065003545001 0.0912759310686722 
107.072914838803 0.3390118111223492 
107.079929274589 0.05220493252119141 
107.085936148655 0.08186419813416546 
108.080802957633 0.3620669367662254 
108.087928659637 0.047788894754405946 
110.060273827221 0.09313475700363097 
110.096468041503 0.18366378841958322 
110.103502147023 0.038017520249429504 
111.068188993395 0.032478094865772175 
111.080460421461 0.05449191083756797 
112.076102076261 0.04922069354416616 
112.111972954436 0.04650982266920177 
115.054392741992 0.09863631015110957 
117.057165939621 0.10236442671786598 
118.06514050983 0.08543328667353811 
120.080918125503 0.08459042044612079 
121.088523170614 0.08463028595788788 
122.096484377091 0.48185701269716547 
122.103921170031 0.0742102288473273 
123.068051101233 0.03226249960616732 
123.080538364571 0.05016717795257161 
124.075749333794 0.10192762609236325 
124.112011513483 0.17229102595180515 
125.083373822127 0.08492881112685013 
126.091670150592 0.06551337455770179 
126.127387466063 0.11651403105266168 
127.054260566733 0.0807133386787412 
128.062348788116 0.0523505702375663 
129.069875748446 0.0646486465980251 
130.065167587458 0.2675387354531069 
130.073007306916 0.04377803847536279 
131.072983173987 0.2843574804739366 
131.081254552161 0.044557778950881186 
132.044192972905 0.04055513689623843 
132.081000105462 0.04933349043774261 
134.096480919358 0.0699345241118832 
136.0753113685 0.039361888184955396 
136.112161318052 0.2833552164986635 
138.091386963456 0.09438981333295611 
140.107181081496 0.0921692561031205 
141.06988221912 0.03338437619154478 
142.06498203669 0.11512328731010031 
143.072980478941 0.20699620441748448 
143.080848991721 0.03885040402410191 
144.056840839979 0.11214919153385128 
144.080698771688 0.349705895401899 
144.08958160747 0.05728403984236405 
145.052158120042 0.24909113063092314 
145.061234952552 0.03979944432620533 
145.08864701259 0.153442981708803 
146.059968310098 0.13672880328234618 
147.067699604091 0.1021087408992502 
147.079791401145 0.0329116644558454 
148.112631309931 0.041255323171057116 
154.065175942631 0.400093491055015 
154.073072744544 0.06805554037379703 
154.122545088557 0.24661705768089456 
154.13180864145 0.04144571313935118 
155.072906303489 0.15809970750288221 
156.08067098123 0.22716172345037292 
156.089248860908 0.03975123599161281 
157.088484423435 0.2096085206744473 
158.059887245228 0.3059555859619387 
158.071374692313 0.08424473180476957 
158.096071849506 0.060930592858029264 
159.067887637268 0.8876601130765951 
159.076843523223 0.1368868989711483 
159.097300015616 0.038612111142474835 
160.07576164975 0.42415586386313525 
160.084356809178 0.05948414992261589 
166.065148201134 0.06199259080174045 
167.072979058839 0.1233789686277712 
168.080804078078 0.2430804402438483 
168.089175186363 0.04092284801788032 
169.088893302709 0.08941377764946512 
170.059922433406 0.24121319111204845 
170.069229684611 0.03863903643772075 
170.096358524917 0.03562885272844063 
171.067746423019 0.3989656828672819 
171.07680963794 0.07814736607920762 
172.075769459083 0.46199048500253015 
172.08481741549 0.0692730941874155 
173.083538195022 1.0 
173.092243594948 0.17254725831372744 
173.110449289769 0.03597767595640256 
174.091232640278 0.7181736580272101 
174.100279890637 0.11290327662357119 
180.080639913415 0.07839745786633351 
181.089064025104 0.05986848239069616 
182.059789174481 0.07215657629841007 
182.096632086356 0.07956310614063909 
183.067949142256 0.13056832787968845 
184.07567037338 0.2902775089713476 
185.083180912728 0.34223529139438624 
185.092464631563 0.05859722265981408 
186.091166277913 0.4185491332787647 
186.100629245275 0.07940902915261996 
187.098953554759 0.2249544922323336 
187.107251811987 0.03630653427887469 
188.106948624253 0.3467227334366836 
188.115729339582 0.06162407593994196 
193.088752545155 0.033355087900238486 
194.096691159362 0.06444380538171549 
195.067830832616 0.0651508073730621 
196.075710146863 0.12871054680693325 
196.111610992948 0.036671802030440535 
197.083820319911 0.15402194789320414 
198.090997849183 0.3017983203759703 
198.100754540645 0.04286691863384749 
199.09892222744 0.0830293802391802 
200.106869943442 0.13993405472763173 
206.095475702804 0.03704587877412265 
208.111699927675 0.04193396920967909 
209.083233714095 0.07722455985581544 
210.09123144756 0.20325672296491384 
210.10108452658 0.035446693059350096 
211.099160508314 0.09960320955949252 
212.106919762748 0.27238721757374634 
212.11668321312 0.048267859588523615 
222.091069112482 0.07484346356710168 
223.099421598755 0.07393229550117698 
224.107404480614 0.12442088914237066 
225.114373170429 0.04699737144819187 
226.122562473419 0.10664959951235477 
227.130388983851 0.03899242490977213 
234.091436804031 0.041322789119801646 
236.106531711762 0.12864118403141916 
237.114053435516 0.061328138814283936 
238.123195905839 0.065445876459351 
240.138401612995 0.04817432030909917 
250.123035909611 0.0685115664638455 
265.133650403222 0.0397753321215075 
END IONS

BEGIN IONS
TITLE=Quebrachamine.mgf
PEPMASS=283.2171758
CHARGE=1+
RETENTION_TIME=2153.586
PRECURSOR_MZ=283.2171758
SMILES=CC[C@]1(CCC2)CN2CCC3=C(CC1)NC4=C3C=CC=C4
INCHI=InChI=1S/C19H26N2/c1-2-19-10-5-12-21(14-19)13-9-16-15-6-3-4-7-17(15)20-18(16)8-11-19/h3-4,6-7,20H,2,5,8-14H2,1H3/t19-/m1/s1
COMPOUND_NAME=Quebrachamine.mgf
IONMODE=positive
SKELETON=Quebrachamine
103.05395652957 0.0869915823441189 
108.082260344818 0.07376461588970457 
109.085622882435 0.03790863811033689 
110.096765427193 0.7874794306029834 
111.101135677911 0.05565692686354892 
112.111482697063 0.056393346380956264 
115.053932407386 0.2114210720224774 
116.059284447798 0.08796861616518907 
117.061466946224 0.19243126427989224 
118.062582133478 0.05134422388597617 
122.096382500664 0.035957245074878956 
123.102439398523 0.03449874861839848 
124.111943051574 0.11861793711598498 
125.116773805483 0.04380872015389687 
126.127079869444 0.13669888007531694 
127.053429761496 0.10031035467290562 
128.051225815758 0.04608688326077348 
128.055971217459 0.0589428149031759 
129.063368176928 0.02890196362936103 
129.069699389559 0.03191202951161013 
130.065273955702 0.29366542810088886 
131.070553239121 0.058406623128527554 
132.080245893491 0.050878006508655364 
138.127429454231 0.38421594239432133 
139.131693024149 0.046599839389868725 
140.142946618174 0.02905907671240021 
142.064604994648 0.07587240655091414 
143.073200519585 0.7376739079413753 
144.080070533808 1.0 
145.083724159187 0.10871139455998373 
152.142645242415 0.1281547821633155 
154.065624268728 0.036164794553430954 
155.070272501675 0.02966043193560617 
156.079717468248 0.09358050933872356 
157.087784602244 0.0604139823088141 
158.096277350967 0.7516754739235878 
159.099988010545 0.14968285851263785 
167.073011950192 0.0685191438316549 
168.079369984353 0.05942825601602625 
180.08065644009 0.039726233946509204 
181.087809797261 0.037445229070032574 
182.096308881457 0.037218255260449855 
210.127896188754 0.026038208762412682 
238.160299275898 0.031234932770417778 
252.174117143276 0.04110589637102679 
283.217175840959 0.35982185782192067 
284.219407729243 0.11619952432120154 
END IONS

BEGIN IONS
TITLE=arbophyllidine.mgf
PEPMASS=277.1698994
CHARGE=1+
RETENTION_TIME=255.231
PRECURSOR_MZ=277.1698994
SMILES=C=C([C@@]1(CC[N@@]2C/C1=C/C)[C@@]2([H])C3)C4=C3C5=CC=CC=C5N4
INCHI=InChI=1S/C19H20N2/c1-3-13-11-21-9-8-19(13)12(2)18-15(10-17(19)21)14-6-4-5-7-16(14)20-18/h3-7,17,20H,2,8-11H2,1H3/b13-3-/t17-,19-/m1/s1
COMPOUND_NAME=arbophyllidine.mgf
IONMODE=positive
SKELETON=Arbophyllidinan
106.064310974692 0.0569834750906778 
115.053084068802 0.10793332492604137 
115.060696064513 0.04852292420883542 
117.05934954378 0.052709540897443584 
117.069306553274 0.06254499893286558 
128.06247057778 0.13331957247632015 
130.065569641558 0.18286489877825632 
130.073078463804 0.05839687351801797 
131.073682078153 0.05187386943513734 
143.072377005759 0.11329652351796787 
144.082191217599 0.05812747754472911 
167.070718404376 0.18253180396962554 
167.074440168831 0.11895465487470011 
180.080306623897 0.22770086282577484 
180.087379206849 0.11838571691750886 
180.092576210043 0.04532822005843402 
181.088163705016 0.06860149851152283 
191.073846260037 0.09044722165004604 
192.0791175873 0.13577223529519544 
193.085738738842 0.04773961462061475 
193.090742364735 0.1086429728947857 
194.094789834442 0.06954588742426102 
194.102791359793 0.051553328307089655 
202.078016794159 0.1419625167424158 
202.087014147861 0.05911936145424584 
203.073269383441 0.0737110469096832 
204.080293000029 1.0 
204.089579955007 0.1885396777182476 
204.102494731751 0.047794867992394505 
204.1124300522 0.04367361060315067 
205.089288442559 0.11046793737015995 
206.082563963026 0.18171932174625277 
206.09456771129 0.13758098161766127 
207.093056878297 0.16121731480350912 
216.080716781514 0.12864294712896465 
216.089188306675 0.0442052740059081 
217.088762250445 0.6261654202927884 
217.09808598518 0.20312112841699517 
217.112266053895 0.0435478161391091 
218.096493702504 0.6754607322445938 
218.108542687976 0.13038120961654875 
218.128754306871 0.04433135475685009 
219.092935902301 0.09897012581879844 
219.104021512599 0.07206266419448386 
220.099940704893 0.10588057627835332 
221.109393221237 0.09315830133957935 
228.078742977592 0.08386288059875188 
228.082492556787 0.08925768526448401 
230.085716902976 0.049434476014096194 
230.096010010059 0.47284704735858113 
231.089956492339 0.078972599337618 
231.097092702996 0.08974823786834209 
231.103949954456 0.10233507047453055 
231.115413686424 0.04765442995339678 
232.099835838974 0.1387127309923749 
232.112750286967 0.15421616865390333 
232.122632140334 0.04409426626027287 
233.106304298965 0.1858368430914462 
233.117918096548 0.05253831270230643 
243.103913768942 0.0868610631063646 
244.112338821274 0.24796739879292853 
245.104276333608 0.062439015522332594 
245.109260338425 0.05219823249330554 
245.118484690839 0.04711920227872921 
246.112793429053 0.07492906884183637 
247.121417499792 0.0888477653661273 
261.137841600058 0.13774060087898668 
END IONS

BEGIN IONS
TITLE=acetyl-epi-voacangarine.mgf
PEPMASS=427.2217211
CHARGE=1+
RETENTION_TIME=169.811
PRECURSOR_MZ=427.2217211
SMILES=COC([C@@]12CC3C[C@@H](C1[N@@](CCC4=C2NC5=C4C=C(OC)C=C5)C3)[C@H](OC(C)=O)C)=O
INCHI=InChI=1S/C24H30N2O5/c1-13(31-14(2)27)18-9-15-11-24(23(28)30-4)21-17(7-8-26(12-15)22(18)24)19-10-16(29-3)5-6-20(19)25-21/h5-6,10,13,15,18,22,25H,7-9,11-12H2,1-4H3/t13-,15?,18-,22?,24-/m1/s1
COMPOUND_NAME=acetyl-epi-voacangarine.mgf
IONMODE=positive
SKELETON=Iboga
105.069699345204 0.07411865147129319 
106.06483343723 0.04637410575693676 
107.072931414479 0.08157585399099243 
107.085259766205 0.112579044048392 
108.080706871643 0.17430778182006196 
110.096322010291 0.12630702580309855 
117.057070893327 0.025407781772771504 
117.069743367587 0.04538600293547704 
119.085479029796 0.12669184411232873 
120.080732936787 0.07272531662151215 
121.088416136202 0.11369535133113999 
122.096360707533 0.44020600989348135 
122.103493447066 0.06092683328990491 
130.065200864134 0.033696997039459005 
131.072940822621 0.05724033631089889 
132.080673471686 0.0288114975110238 
134.09645953623 0.10594518435637593 
135.104280887058 0.2451654559518444 
135.111591540187 0.03908448489566067 
136.112084724986 0.94731400382706 
136.119680709393 0.09728391920707125 
136.139048676083 0.04917374880847722 
143.072843958379 0.08477038822164665 
144.080781805315 0.03481525899492305 
146.072107754683 0.0298153322951499 
146.096391552604 0.06274972323253054 
147.067720359181 0.03339232031158744 
147.080255244236 0.04451588983401518 
148.075619928224 0.02859906872455871 
148.112060547062 0.2185942025353051 
148.120379214637 0.03168176099617687 
154.065229015694 0.0829416973148314 
155.072963303582 0.16639466765283056 
157.08836725479 0.029237143258436266 
158.059777781432 0.037219616780108614 
158.096215963345 0.11932082059052238 
159.067754015863 0.15861522787779447 
159.077522714262 0.03175769372580008 
160.075644758224 0.26742224225236305 
162.091350390657 0.05090377603360019 
167.072917177168 0.1509041701208413 
167.08213693294 0.025755350955968946 
168.080530172735 0.041723939365421805 
169.088138817575 0.046154189312889976 
170.059874315545 0.034571445100573424 
171.067768113012 0.06943557091339805 
172.075625494375 0.2536545680307287 
173.083240451017 0.08651351490666516 
174.091201341714 0.6902425417807352 
174.099271729484 0.13959299930814043 
174.122010429466 0.03445976077643383 
180.080394815258 0.027014412400948144 
181.088409154795 0.04202878949167948 
182.059789791505 0.03261466007689745 
183.067826089233 0.15381551326001103 
183.076309514253 0.02577864939366525 
184.07551077855 0.30545859695799327 
184.083922163127 0.03763055519168167 
185.083456768795 0.1072001000035783 
186.054903449146 0.035738400475552955 
186.091174882176 0.6585724300034065 
186.099543048208 0.07929243369836846 
186.123130849649 0.030379413008630663 
187.086338763782 0.046659834770254226 
188.106530912993 0.07444352122940086 
189.102018875975 0.0594789725294395 
193.088335257913 0.026032315469043422 
194.117394438707 0.027109986438669853 
195.067765247919 0.12371732090665917 
195.091806783154 0.02644125191743147 
196.075416622807 0.11468663837750814 
197.083436180344 0.09317677350687044 
198.091278703512 0.6190199428636554 
198.099916890018 0.08535760973792725 
198.123711701 0.028227791252934176 
199.086419124498 0.13912272712154108 
200.070428079056 0.053142585650526895 
200.106836660848 0.2700271589163105 
200.115990861812 0.03452587285200778 
201.102045813997 0.1712624332554144 
206.11746824829 0.03566144311910278 
208.075706255867 0.026419876625471933 
208.099226764821 0.0588124448967515 
209.083225906889 0.06033150933994643 
209.106864503588 0.05453248405956518 
210.078000731678 0.026543856471535156 
210.091256234766 0.7073021055450754 
210.099467441767 0.19952920761824233 
210.114766138565 0.08470416580164516 
210.124499836811 0.03766340630410325 
211.062861196994 0.03345795948247202 
211.086178499469 0.10110631323031262 
212.070639972661 0.062200081875565215 
213.101893414143 0.06646065362048735 
214.086227726535 0.15108278622201646 
214.09556994208 0.026677199830447904 
214.110005706382 0.05322140309875526 
215.117791563399 0.026630634482034583 
218.095919723914 0.02861790609468529 
222.091109787958 0.042775301070829615 
223.085951636389 0.026298466228220966 
223.098752538051 0.053588786988437324 
224.070248049131 0.026299695780413326 
224.094014203841 0.05743488930010578 
224.106717085625 0.2803758898686948 
224.116740936428 0.03827271246937745 
225.10207915387 0.181271303371038 
226.086047173824 0.12852066112706112 
226.11020369139 0.05229670103265043 
226.121620164928 0.029645118133955924 
227.117669317092 0.05453688207317632 
228.101661539436 0.028326123901343883 
232.09680970683 0.02526483844866454 
233.11939170452 0.025248870033653472 
234.091092424439 0.07482725185784547 
235.086416489523 0.04417380634521443 
235.098738485217 0.07816914318970745 
235.122775644711 0.026879823726353384 
236.094165572753 0.09433330921519417 
236.106481342104 0.10111425802909403 
237.078082984784 0.027118183453285604 
237.102117909998 0.2865441433670467 
237.112786063095 0.06336120475937584 
238.085835720839 0.14069388989801493 
238.109839222288 0.18299772075703213 
238.120751519463 0.06135050860111167 
239.117897269598 0.2697834553663884 
239.127884488691 0.057420623341976444 
240.101714785664 0.029431696247643156 
244.096723414821 0.1380209853032257 
244.106799196669 0.02693881070460749 
246.112499839372 0.027035125626342558 
247.098878185305 0.11598580214014592 
248.106683649519 0.0833511697218674 
249.114295191061 0.10646314109915345 
249.13842673911 0.05436491816463168 
250.109985402104 0.07024215715158785 
250.122000229419 0.10509888988776868 
251.117876939059 0.8942098022738203 
251.127560899908 0.10346952830752298 
251.154330086292 0.04651370722123884 
252.101757500099 0.07130214148583185 
252.137036383407 0.06159345550353078 
253.096879645828 0.04445468020372103 
253.133536656386 0.668459763613862 
253.143227980424 0.08607387118044733 
253.169925487409 0.03821612154154948 
258.112258323062 0.061437396956038615 
261.114500323286 0.1336383883849564 
262.122291649931 0.05757182673465775 
263.129805977909 0.06079988990778831 
263.154262863716 0.057992506982831815 
264.101934273716 0.0260598858124337 
264.125349055277 0.05544760192396543 
264.137982391669 0.18954745070480927 
264.148112223145 0.026846956850442152 
264.16231564961 0.21060936449018586 
264.173332622681 0.04145759944436851 
265.097258066619 0.13793879446821317 
265.133562164039 0.18565134660398472 
265.169659498376 0.07674480155579337 
267.112467974297 0.026652230462849157 
268.096031896449 0.03130867072324309 
270.112360793378 0.03803310742676322 
276.137935731972 0.05028879501205355 
277.133428708357 0.16060095466845992 
277.144581303687 0.04403581275685621 
278.141349648465 0.06590128619041065 
278.153440206384 0.13360383481565308 
278.164558556051 0.025810759622073486 
279.112790921296 0.08072512998179475 
279.149096374812 0.2665719596208755 
279.15915093947 0.08934599330713756 
280.12010492177 0.07766341891489496 
284.127488733761 0.033380970599042555 
290.153606902611 0.029127066810240528 
291.1491707246 0.141973333535106 
291.160248926381 0.03136552963039504 
292.156901177745 0.35491559991191357 
292.166842057418 0.05998113425559205 
293.164898412123 0.313113662799725 
296.114808976054 0.02760196495051131 
297.123360062068 0.036487197760701716 
305.128116618311 0.051598110462023145 
305.164807002395 0.02779508346216045 
307.180461077855 1.0 
307.190737410878 0.0956441221966801 
307.220096552282 0.06325793813870705 
311.139068458127 0.30825456711644633 
311.150351960775 0.060683902150975445 
320.151985939205 0.10973553120516763 
323.175533061961 0.026688675650909953 
324.183234874544 0.2829038807031714 
324.194629424816 0.043846209503398056 
335.175392829155 0.4797009602960257 
335.209951217149 0.03181266101419455 
352.177794382595 0.1883218393848582 
352.189436863247 0.0349857726624203 
367.201439533171 0.5086723626460152 
367.213655512391 0.08199084361940441 
367.244957403553 0.03146830758288482 
END IONS

BEGIN IONS
TITLE=Catharanthine.mgf
PEPMASS=337.1915675
CHARGE=1+
RETENTION_TIME=981.547
PRECURSOR_MZ=337.1915675
SMILES=CCC1=C[C@H]2C[C@](C1[N@@](C2)CC3)(C(OC)=O)C4=C3C5=C(N4)C=CC=C5
INCHI=InChI=1S/C21H24N2O2/c1-3-14-10-13-11-21(20(24)25-2)18-16(8-9-23(12-13)19(14)21)15-6-4-5-7-17(15)22-18/h4-7,10,13,19,22H,3,8-9,11-12H2,1-2H3/t13-,19?,21-/m0/s1
COMPOUND_NAME=Catharanthine.mgf
IONMODE=positive
SKELETON=Iboga
103.054451998721 0.040559501396359485 
105.069979413889 0.03478886301748293 
115.054399417375 0.06608564338162748 
117.067553449987 0.07263495239841862 
127.05424916978 0.04802849246569459 
128.052909823014 0.037793421208413905 
133.064957700009 0.0445284413935273 
143.072980219604 0.10754817614326208 
144.080712902441 1.0 
144.187237819045 0.05266789394632315 
145.084022429868 0.15385380127819703 
165.091066083451 0.027143284126073967 
204.081010322392 0.05068091386678986 
205.087103446903 0.028100753778760014 
217.088770085421 0.025228095263520777 
218.096064408472 0.04134310514134223 
END IONS

BEGIN IONS
TITLE=conoliferine.mgf
PEPMASS=613.3266602
CHARGE=1+
RETENTION_TIME=237.751
PRECURSOR_MZ=613.3266602
SMILES=CC[C@H]1C[C@@H]2C[C@@H]3[C@H]1N(C2)CCC4=C3NC5=C4C=C(C(=C5)C[C@@H](C6=CC(=C(C=C6)O)OC)[C@@H](C7=CC(=C(C=C7)O)OC)O)OC
INCHI=InChI=1S/C37H44N2O6/c1-5-21-12-20-13-28-35-25(10-11-39(19-20)36(21)28)27-18-32(43-2)24(15-29(27)38-35)14-26(22-6-8-30(40)33(16-22)44-3)37(42)23-7-9-31(41)34(17-23)45-4/h6-9,15-18,20-21,26,28,36-38,40-42H,5,10-14,19H2,1-4H3/t20-,21+,26+,28+,36+,37-/m1/s1
COMPOUND_NAME=conoliferine.mgf
IONMODE=positive
SKELETON=Iboga
122.096472303539 0.11294881994324985 
137.059625737022 0.08298328610148722 
151.039176513275 0.09891973263997343 
238.146287811468 0.04763175107148446 
253.133358823407 0.05337844489221607 
294.209241450281 0.7616685241661786 
294.241822508631 0.03341757528268665 
295.122935884267 0.026253182679031876 
296.128574765001 0.030023135311295537 
309.196422559303 0.7692308153473625 
309.207788164542 0.13248523842440077 
309.230158148077 0.03471801478765454 
323.211769806231 0.15292836446718344 
323.225607449141 0.026560140718327734 
375.170453577857 0.04798277351555414 
389.185565512765 0.22471011916573794 
389.19889927462 0.062222116973908476 
415.239096857742 0.066936708526852 
417.216291744573 0.03773873465014961 
418.239351905846 0.02741839542017958 
431.233099880706 0.5748241170782242 
431.246168326838 0.1317160597669203 
431.280512755236 0.027241268503303034 
445.248636730216 1.0 
445.297727266414 0.051377807007499346 
446.269832913581 0.06213212966565608 
613.326993872651 0.07668998982621839 
END IONS

BEGIN IONS
TITLE=cononusine.mgf
PEPMASS=394.2486552
CHARGE=1+
RETENTION_TIME=210.642
PRECURSOR_MZ=394.2486552
SMILES=CC[C@H](C12)C[C@@H]3C[C@@]1([H])C4=C(C5=CC(OC)=C(C(N6)CCC6=O)C=C5N4)CC[N@]2C3
INCHI=InChI=1S/C24H31N3O2/c1-3-14-8-13-9-18-23-15(6-7-27(12-13)24(14)18)16-11-21(29-2)17(10-20(16)26-23)19-4-5-22(28)25-19/h10-11,13-14,18-19,24,26H,3-9,12H2,1-2H3,(H,25,28)/t13-,14+,18+,19?,24?/m1/s1
COMPOUND_NAME=cononusine.mgf
IONMODE=positive
SKELETON=Iboga
107.074108998491 0.04748236487582735 
108.080332335118 0.042024327860755196 
121.088805787073 0.07963163231008359 
121.10274612693 0.04286122310432451 
122.096595217115 1.0 
122.103998386978 0.15756323809618736 
124.112503738551 0.1193684302621444 
134.09631367655 0.04100507610278014 
136.113130801464 0.059196650115481746 
150.128225930324 0.0976778504833843 
159.069332239551 0.03932061511268815 
174.091732216918 0.2069615756683738 
185.082976613006 0.04123139376038602 
186.091758323843 0.09898699439009519 
188.106125730908 0.06857417826883133 
196.076457921841 0.04015506837815554 
198.09154772367 0.045250546399522015 
199.099908912803 0.05594582906264033 
200.108026997751 0.1187262066334314 
212.106664681239 0.08065560190330319 
224.10861520273 0.05164554438668972 
226.123681575341 0.07560790580720111 
228.101640562434 0.08288716012343894 
242.106287153821 0.05230817320657196 
243.111679454333 0.0935671319714737 
250.120644561959 0.04224244468033621 
257.128804449698 0.3020043047477924 
257.138888851617 0.06795172303427684 
262.123170672584 0.0484023593606115 
268.169244563277 0.08096203969958686 
271.144099525354 0.06407960959359614 
282.184814870456 0.055512419479786676 
283.142814964487 0.058055509872291744 
293.127210401629 0.057748130723905305 
296.139668795165 0.05635836277827337 
296.18862069694 0.09509295298278488 
307.143291363714 0.08825364234046712 
308.13767863837 0.040088891325329626 
321.157462257047 0.04238903535220135 
321.196361013932 0.06278657941993884 
322.154137972932 0.09721631108475325 
322.191440615705 0.21336221623079293 
322.205541185509 0.06754926732350894 
324.167566840764 0.04474222180138245 
335.174251963492 0.04657499004658585 
351.206414295721 0.048803447342147706 
364.200695705099 0.03971542925932755 
378.215982362357 0.106308388056346 
394.249313977246 0.2674748451337357 
END IONS

BEGIN IONS
TITLE=Conopharyngine.mgf
PEPMASS=399.2292435
CHARGE=1+
RETENTION_TIME=994.773
PRECURSOR_MZ=399.2292435
SMILES=COC1=CC2=C(NC3=C2CC[N@@](C4)C5[C@@]3(C(OC)=O)C[C@@H]4C[C@@H]5CC)C=C1OC
INCHI=InChI=1S/C23H30N2O4/c1-5-14-8-13-11-23(22(26)29-4)20-15(6-7-25(12-13)21(14)23)16-9-18(27-2)19(28-3)10-17(16)24-20/h9-10,13-14,21,24H,5-8,11-12H2,1-4H3/t13-,14-,21?,23+/m0/s1
COMPOUND_NAME=Conopharyngine.mgf
IONMODE=positive
SKELETON=Iboga
105.073033939531 0.025953149132827515 
107.085956961707 0.025197002453892104 
117.07017678339 0.027965284682055416 
119.089052903973 0.08851308089404517 
121.096699541294 0.02938818902418283 
122.100233116933 0.17360059472113942 
130.069021025822 0.030235920691791755 
146.067665393937 0.09184419959585487 
158.065742326883 0.049184734285122544 
160.07998726294 0.133494529228615 
161.087466986995 0.02832510130539826 
172.079674913067 0.031206217789705885 
173.087291265374 0.06533727776000428 
174.063854544966 0.033189310520475725 
176.076334457753 0.031738978045868275 
184.079767618321 0.034309407418857726 
186.095688184337 0.0339792364300714 
188.076451487255 0.06280155337096915 
189.082610328423 0.04216903135634053 
190.090148989019 0.041701073830762825 
192.105858742088 0.05709103341194343 
196.081699972783 0.02715404491754983 
204.106025138296 0.17458658656675996 
214.090930043341 0.03429875049140277 
230.119519897331 0.02645762009065493 
258.116931265698 0.03694526386767671 
383.200510464361 0.10714003374908986 
399.231879011114 1.0 
399.401571810898 0.06914959441241147 
400.235238371541 0.05470265450068958 
END IONS

BEGIN IONS
TITLE=Coronaridine.mgf
PEPMASS=339.2056493
CHARGE=1+
RETENTION_TIME=1017.126
PRECURSOR_MZ=339.2056493
SMILES=CC[C@H]1C[C@@H]2C[N@@](C1[C@@]3(C(OC)=O)C2)CCC4=C3NC5=C4C=CC=C5
INCHI=InChI=1S/C21H26N2O2/c1-3-14-10-13-11-21(20(24)25-2)18-16(8-9-23(12-13)19(14)21)15-6-4-5-7-17(15)22-18/h4-7,13-14,19,22H,3,8-12H2,1-2H3/t13-,14-,19?,21?/m0/s1
COMPOUND_NAME=Coronaridine.mgf
IONMODE=positive
SKELETON=Iboga
103.049044861508 0.051902497205772204 
105.06438863298 0.057707974363844255 
106.062020800541 0.04250946164615994 
107.068639654146 0.024798594804601268 
107.077218906484 0.05046604761355583 
108.076365967747 0.031828344595275344 
115.048846816306 0.1309599438996516 
116.051210863062 0.03996669649177037 
117.061324013191 0.1792357256439157 
118.061975525733 0.05579412303977114 
119.079722068932 0.1550142258742135 
120.080902468847 0.030987382423424723 
121.086683607021 0.03666038295890466 
121.095028919839 0.03557143083755665 
122.091125942311 0.17491773087409845 
127.048455786296 0.0865866490717133 
128.051661816521 0.08889437183001092 
129.06241496616 0.05985834004648258 
130.059652197254 0.2881946751828985 
131.064367636687 0.05604938705624798 
132.074098300601 0.05933830856649291 
142.061151120361 0.034174824268402494 
143.06808936508 0.14998997493519434 
144.07473758456 0.7057502714198765 
145.078120129777 0.11154061451717988 
146.071204925075 0.04708322061387695 
147.074496020121 0.027790394258717557 
154.059333771278 0.10194712053414803 
155.066233930618 0.06251607547366109 
156.074322010191 0.05601408853868567 
157.075226702975 0.030892748098203048 
158.086858113488 0.04756956844775555 
159.085745575261 0.058256087458007984 
167.067266647511 0.11191649371107606 
168.07366134231 0.12184307993999538 
169.077927170474 0.0388267830288729 
170.089484611365 0.0853164883662803 
171.088680112805 0.03885097751884576 
180.075104975996 0.11215926748287701 
181.078620018846 0.05680260311561579 
182.086669565619 0.04319160907077581 
192.074638374175 0.03854458067004589 
193.081886513457 0.07503628816223484 
194.08871232918 0.06828786898562207 
195.091291526202 0.02774101920682373 
198.085320993916 0.0496948107320641 
204.074970888866 0.04664733394012485 
205.081700256964 0.034277904514223086 
206.089966428735 0.09778242422501533 
207.094354450542 0.08077446948257376 
208.102246746681 0.055095812609745165 
209.102358390506 0.11033980753876298 
210.10398394902 0.030996771543278342 
218.090922785001 0.040268205853523156 
219.095638464781 0.02814635194108263 
220.102873784704 0.04915937366424764 
221.110204938013 0.05459731751273783 
222.114921670076 0.03568237107716642 
236.131157839607 0.044607136788615186 
237.100373881526 0.04586953753654361 
250.149322859578 0.027526212722014456 
279.178695642778 0.04227669150281795 
307.174721873505 0.06322433236855482 
339.205649250322 1.0 
340.204472435052 0.3155444524806926 
341.208135246992 0.042954094349364716 
END IONS

BEGIN IONS
TITLE=Ibogaine.mgf
PEPMASS=311.2118479
CHARGE=1+
RETENTION_TIME=814.199
PRECURSOR_MZ=311.2118479
SMILES=COC1=CC2=C(NC3=C2CC[N@@](C4)C5[C@H]3C[C@@H]4CC5CC)C=C1
INCHI=InChI=1S/C20H26N2O/c1-3-13-8-12-9-17-19-15(6-7-22(11-12)20(13)17)16-10-14(23-2)4-5-18(16)21-19/h4-5,10,12-13,17,20-21H,3,6-9,11H2,1-2H3/t12-,13?,17-,20?/m0/s1
COMPOUND_NAME=Ibogaine.mgf
IONMODE=positive
SKELETON=Iboga
103.053875912414 0.041124075982459235 
105.068028490827 0.045683330882971884 
106.065385429243 0.06848352749294079 
107.073306426679 0.1381192141748173 
108.079619286776 0.044959392426571154 
115.053685870737 0.06276486553249719 
116.056730841143 0.026668564263271115 
117.059128690309 0.07886433659846864 
118.064251546288 0.04434226832214769 
119.083443111222 0.024765447655806863 
121.088810378206 0.09344161713763685 
121.098790149362 0.039102493382303864 
122.095803305166 0.6942717277295976 
123.09940000948 0.07379259299695108 
124.111499559237 0.0991367923262478 
130.06476261676 0.1876971518389982 
131.072081391334 0.21853874663667822 
132.070348967721 0.03878757797482099 
136.110421461005 0.034313370876999275 
142.064643991598 0.05486383750456719 
143.072045533909 0.11654331141922719 
144.078634201306 0.08688591782244598 
146.060840657086 0.05800980343361008 
147.067893180876 0.04675122210343767 
150.126675732364 0.05760665207765039 
154.064525215112 0.09578861997095806 
155.071303370406 0.06402782998971766 
156.078568075272 0.056159050400456344 
157.086577856092 0.04118031579157417 
158.06241876712 0.08233604386888602 
159.067689606198 0.1433138504750452 
160.074559221158 0.11790731028066923 
161.08156802594 0.04878030487389507 
162.090757742663 0.04975190950436719 
167.072396841363 0.07603757516512416 
168.07920427316 0.07184041564246528 
169.085041280837 0.04437669570937505 
170.06850088303 0.03169039847464427 
172.075365738716 0.04926446724363696 
173.08239644878 0.09761336323921117 
174.090549522495 0.3723346011755772 
175.093824130621 0.06358749889045646 
180.079885901057 0.05583246041595899 
181.086593985953 0.0489648732849668 
182.083453427831 0.03681184503960067 
183.070973343717 0.04062115171881196 
184.075265739909 0.04147885468041591 
185.082364991878 0.029878912388148264 
186.090135207292 0.06298438886571049 
187.096322183629 0.037146783837522915 
188.10602937832 0.09845182264459675 
194.09472848381 0.031046530643700398 
196.079145377354 0.031899027065064096 
197.083926455097 0.039864689588135147 
198.089826496645 0.07596092204845936 
199.092108427167 0.040998316246171645 
200.104816457106 0.0446693170326574 
210.090822453851 0.06137059075423961 
211.096903130844 0.033732027401539626 
212.105345046808 0.05515015134517962 
213.108515309792 0.026056715507989745 
223.098365406189 0.025911391107275146 
224.10565399396 0.07389248058614176 
225.110904377601 0.037996780202119274 
226.119075809775 0.03331942628972539 
238.120911639084 0.055377220721296194 
239.126033144525 0.029830700284249573 
240.135553528209 0.03233479384050234 
268.168959067227 0.04295207620540008 
282.18334175355 0.04875369876517839 
294.183549776285 0.03991636507342713 
296.186577944575 0.05221022220458676 
311.210135615768 1.0 
311.364454408839 0.040771659723466205 
312.213523307825 0.307409732468696 
313.216378517937 0.03696698617697971 
END IONS

BEGIN IONS
TITLE=Ibogamine.mgf
PEPMASS=281.1998043
CHARGE=1+
RETENTION_TIME=900.258
PRECURSOR_MZ=281.1998043
SMILES=CC[C@@H](C[C@H]1C2)C([N@](C1)CC3)[C@@H]2C4=C3C5=C(N4)C=CC=C5
INCHI=InChI=1S/C19H24N2/c1-2-13-9-12-10-16-18-15(7-8-21(11-12)19(13)16)14-5-3-4-6-17(14)20-18/h3-6,12-13,16,19-20H,2,7-11H2,1H3/t12-,13-,16-,19?/m0/s1
COMPOUND_NAME=Ibogamine.mgf
IONMODE=positive
SKELETON=Iboga
103.052581784319 0.04291297980169451 
105.06822853447 0.03698372150238322 
106.064228573264 0.0782628015526518 
107.072214390125 0.10951843911240308 
108.078423654676 0.0360201874496622 
115.052669169185 0.1168747753361922 
116.056534331243 0.037805837044745896 
117.061688462601 0.1379293983272998 
118.063943431108 0.04576770893596903 
121.087859084513 0.06909538382122964 
121.098543847792 0.05165538575332313 
122.094580918423 0.5599372850256289 
123.098487181843 0.05958788592012477 
124.110269708772 0.08910909143913034 
127.052457753894 0.0792047093315359 
128.057187452253 0.12077981196485492 
129.06630736152 0.07623617696268803 
130.063856636975 0.201615786374862 
131.06983911854 0.05238869086150268 
132.078519289513 0.047582571687194555 
142.064621088356 0.032529489735814265 
143.071536345862 0.24459523068086414 
144.07859015497 0.6123250732676934 
145.082414024015 0.08560262228023381 
150.125886377727 0.04306954768154269 
154.063791824552 0.08744789354847878 
155.070580356976 0.05307991438776605 
156.078607724898 0.09268942902123974 
157.084706553834 0.041050327010484174 
158.09424470091 0.10194799911836036 
166.065560561714 0.02463204535638282 
167.071440458886 0.1963976702172544 
168.078413017608 0.16285999116164804 
169.081986938781 0.05148842555237565 
170.093774801804 0.056606997423021506 
180.079181205153 0.12637001468952147 
181.085086690297 0.06445531003087081 
182.093305961307 0.0783976211830633 
183.094692422472 0.037345940243421825 
192.078861732519 0.027533234996604813 
193.086587785685 0.056533909643647066 
194.094310591638 0.10461134853661605 
195.099436606259 0.04212585905890214 
196.109068971437 0.03696474209906102 
206.094414389711 0.032878522914519134 
207.10107896395 0.024971808389506148 
208.110000146142 0.05970383592525384 
209.113534756859 0.030252400449309318 
210.124151283081 0.03287921817543775 
211.123044378055 0.030086440448279846 
238.157305240749 0.030430399442034815 
252.172711316061 0.037260471940672044 
264.173154865007 0.03512303251832897 
281.200029909585 1.0 
281.346973813811 0.05764466824527488 
282.203063962249 0.30305154896204256 
283.206683360722 0.032832586903650623 
END IONS

BEGIN IONS
TITLE=Iboxygaine.mgf
PEPMASS=327.2076529
CHARGE=1+
RETENTION_TIME=893.87
PRECURSOR_MZ=327.2076529
SMILES=COC1=CC2=C(NC3=C2CC[N@@](C4)[C@]5([H])[C@@]3([H])C[C@@H]4C[C@@]5([H])[C@@H](O)C)C=C1
INCHI=InChI=1S/C20H26N2O2/c1-11(23)15-7-12-8-17-19-14(5-6-22(10-12)20(15)17)16-9-13(24-2)3-4-18(16)21-19/h3-4,9,11-12,15,17,20-21,23H,5-8,10H2,1-2H3/t11-,12-,15-,17-,20-/m0/s1
COMPOUND_NAME=Iboxygaine.mgf
IONMODE=positive
SKELETON=Iboga
104.052774824796 0.03634007298699573 
105.071137070099 0.0344385135002529 
106.067444936204 0.05066309088461355 
107.078462274735 0.06434414136298171 
108.082957470394 0.06674526133703444 
110.098481820867 0.026095299021847554 
115.056300860464 0.05632500594796845 
117.061559921687 0.06459376666679292 
118.067168352896 0.032388139458254556 
120.083052486793 0.06795100320105717 
121.090948974169 0.0893520519027818 
122.098580617829 0.19304829681515986 
127.056229273567 0.033215552654928655 
128.058964690901 0.027411705808488156 
130.067527296788 0.09360401438805821 
131.075560920663 0.09321632046793212 
132.048442412959 0.09043308440812807 
134.098288920389 0.04393939028761311 
135.106490973413 0.17081195020026838 
136.114440813132 0.5849423262254967 
141.067491721019 0.03306682073425648 
142.068021891219 0.07360875210416916 
143.075305567178 0.12416679377472366 
144.079161685063 0.05657511328684909 
147.070886740471 0.08581570490914844 
148.114237194887 0.10670800002616762 
152.064081765441 0.02581908604084972 
154.067786135075 0.2635743657881807 
155.074400950397 0.08440299784495893 
156.081379670351 0.071627691262047 
157.089376319385 0.04763553190676203 
158.066633254184 0.07733842959171974 
159.071722420875 0.07111780145182077 
160.078833602006 0.09360153535055828 
167.075650057689 0.14347264261610074 
168.083044423863 0.22807719998223358 
169.089929744106 0.1798480074563939 
170.072495966798 0.05105233420317709 
171.077399648694 0.034212563004565905 
172.079990300904 0.04204103289097434 
173.086118858829 0.0875274114406892 
174.0939216864 0.21262239817267392 
180.083303792742 0.27707186419832575 
181.090469276488 0.13676564109114836 
182.068620462502 0.11321815908741122 
183.079422946769 0.04325920437357305 
184.08120696863 0.06374765739564027 
185.086208144547 0.05797917815086528 
186.094019822549 0.14488755326917907 
188.109443288898 0.12895409063567687 
193.089513549869 0.0258622660537476 
194.096723346532 0.03128331852223198 
195.089727143183 0.06051778141293431 
196.083861802516 0.09398430562676094 
197.086376191502 0.17318655824550253 
198.090468864754 0.09289039589884564 
199.093323141406 0.06151511197158197 
200.108693227764 0.10901044053529306 
202.124774945125 0.03454239205771475 
208.103628878422 0.025799002393992743 
209.105490266617 0.05244238561910347 
210.096803213261 0.09277828831412711 
210.111367379273 0.0576251578234464 
211.106746992735 0.05417296038050471 
212.10892195812 0.20039378822064674 
224.106707361038 0.07849008023473732 
225.110079447991 0.039458185695747036 
226.122778911116 0.03721076604668923 
227.120763515317 0.026366037461699732 
236.108393124997 0.03361948082757158 
237.110506999249 0.04393422562615495 
238.116122153535 0.07151758067975897 
239.120645286149 0.0773227634519633 
251.129560505616 0.03390634678360378 
252.134259970024 0.02632142167291648 
253.135994572576 0.2048707577901171 
254.14569730749 0.06597066541153916 
265.168361344299 0.027833724068665206 
266.158929017702 0.04491506369921287 
266.178621465251 0.04929486877111701 
280.169588418489 0.02954547880371291 
294.174802693678 0.04912219692303243 
309.198647399462 0.6903874976629907 
309.349098914267 0.025892338155864662 
310.201643517057 0.02575082298880336 
327.209026976675 1.0 
327.364476719456 0.05661181681427843 
328.211916140018 0.03735214004633734 
END IONS

BEGIN IONS
TITLE=Tabernanthine.mgf
PEPMASS=311.210881
CHARGE=1+
RETENTION_TIME=1124.314
PRECURSOR_MZ=311.210881
SMILES=CC[C@@H](C[C@H]1C2)C([N@](C1)CC3)[C@@H]2C4=C3C5=C(N4)C=C(OC)C=C5
INCHI=InChI=1S/C20H26N2O/c1-3-13-8-12-9-17-19-16(6-7-22(11-12)20(13)17)15-5-4-14(23-2)10-18(15)21-19/h4-5,10,12-13,17,20-21H,3,6-9,11H2,1-2H3/t12-,13-,17-,20?/m0/s1
COMPOUND_NAME=Tabernanthine.mgf
IONMODE=positive
SKELETON=Iboga
103.053053139835 0.041383248928567824 
105.067550943258 0.05013052283325227 
106.064600939267 0.08227431228206122 
107.072291544925 0.1696833012292961 
108.078682958202 0.059111455508200954 
110.095083664006 0.02746219646571646 
115.05272926422 0.06682682047294147 
116.056887230529 0.032853682529999644 
117.05824394762 0.08670842481381032 
118.063306862887 0.05265410166858558 
119.082281361449 0.027439448854742286 
120.07989903841 0.0268111577329512 
121.087695275348 0.11934856740886071 
121.097475677356 0.04299521049898192 
122.095016697915 0.8193215926899886 
123.09836703573 0.10597052657032707 
124.110331279693 0.10518294721473434 
127.052301175334 0.024822099668151423 
128.056401525459 0.028413048436336456 
129.0654375358 0.025449255012305785 
130.063750495138 0.2191298386188211 
131.071050525205 0.25990805696840796 
132.072507285426 0.05080237194336133 
136.109714245273 0.047925328116083805 
142.063563073929 0.05770922810170338 
143.071126438309 0.12446868047369256 
144.076767016765 0.09678849713719918 
145.075469237957 0.04008226144318868 
146.05957265039 0.07544421270916855 
147.066820679918 0.05171561959875907 
150.125915247976 0.07921362053852347 
154.06365191952 0.09721734479003226 
155.070403758205 0.07307900157818134 
156.077415648035 0.062059164855376124 
157.085362291635 0.04091983791353984 
158.061025658313 0.08827836261166572 
159.066760263681 0.15181600768664993 
160.073510681878 0.12741322979437844 
161.080610563187 0.06044993281508899 
162.089891601254 0.06847603371794062 
167.0712989059 0.09124127672397764 
168.078195904015 0.0792764088909406 
169.083700730591 0.04882538609570025 
170.062870410338 0.06905587567997816 
171.0693422098 0.03267155967000164 
172.074071868194 0.07785993846649868 
173.081343087184 0.15530234125904613 
174.089529482331 0.42725399193781066 
175.092932197164 0.0872262569806817 
180.078905889515 0.05768367310487715 
181.085785369332 0.05550920850037966 
182.080692214052 0.03898479340296383 
183.069076455966 0.05319061920948044 
184.073823071723 0.06782296157682574 
185.080275503924 0.04368362913929121 
186.089066053544 0.08542531666671246 
187.095646763332 0.05046333315930288 
188.105130851183 0.1250870839183962 
189.107865872885 0.030460736441883445 
190.119120126598 0.02849876300992065 
194.093463167526 0.029546916317918812 
195.092616865538 0.026331671800564775 
196.077615604972 0.04395649513676503 
197.082189374879 0.05129373316369945 
198.088884586216 0.10327676427942695 
199.089773873372 0.07731572694806474 
200.102761004533 0.057109510031023214 
202.119588718613 0.02745976919899282 
208.079333291073 0.02497379467888177 
209.083892673044 0.029409056727513205 
210.089415747782 0.08724233189804013 
211.09546299267 0.049347843808592154 
212.104483817759 0.07056329991032852 
213.108361367134 0.035764556959706456 
223.096912352821 0.033370177410298754 
224.104692889294 0.09804797378185558 
225.110227004472 0.052428686445684644 
226.118619686327 0.03647695516334589 
236.106372639902 0.025051174110131958 
238.120504558025 0.0732090664365801 
239.125114920065 0.04427880867917304 
240.134403721884 0.039615658343431684 
241.134152333548 0.027239593208416114 
250.121384730306 0.026662677705692535 
252.136112065261 0.02517722252906537 
253.142677524451 0.024573089580797295 
268.167624153615 0.06694616871976794 
282.183064841931 0.08292523194136456 
283.185957770107 0.02877969852431343 
294.183072450808 0.05385028618848596 
296.186536478583 0.043140855661897314 
311.209942559592 1.0 
311.36561570423 0.027183569144585407 
312.213550557476 0.36489476195841036 
313.216142504136 0.046937842736931 
END IONS

BEGIN IONS
TITLE=Voacangine.mgf
PEPMASS=369.2179287
CHARGE=1+
RETENTION_TIME=1073.44
PRECURSOR_MZ=369.2179287
SMILES=CC[C@H]1C[C@@H]2C[C@@]([C@@]1([H])[N@](C2)CC3)(C(OC)=O)C4=C3C5=CC(OC)=CC=C5N4
INCHI=InChI=1S/C22H28N2O3/c1-4-14-9-13-11-22(21(25)27-3)19-16(7-8-24(12-13)20(14)22)17-10-15(26-2)5-6-18(17)23-19/h5-6,10,13-14,20,23H,4,7-9,11-12H2,1-3H3/t13-,14+,20+,22?/m1/s1
COMPOUND_NAME=Voacangine.mgf
IONMODE=positive
SKELETON=Iboga
103.052984619058 0.03726426522355743 
105.067195829915 0.0711408556548654 
106.066985315847 0.036251491900884496 
107.072177219138 0.04832515997823472 
107.081902803703 0.060423081698290464 
108.083641611478 0.029691577135114573 
115.054190326575 0.06849790418603699 
116.057197163375 0.03467828619140901 
117.06069714797 0.11866043509040125 
118.064641505679 0.04953190994548968 
119.083977703045 0.16282081938989487 
120.086748743393 0.04015894010531436 
121.097167901617 0.0500983269973754 
122.096551888838 0.2893008100034202 
123.098538126591 0.03189640124764518 
124.110994829767 0.033906933733220956 
129.063863476532 0.02513009428209874 
130.065704034507 0.1768426534430067 
131.072699767157 0.24778206474620165 
132.0710879467 0.04011860923733056 
133.058908041083 0.030823820646937044 
136.111756602993 0.027219280491015522 
142.064732049577 0.059817278725539325 
143.072449933018 0.16775711814227595 
144.07800023051 0.06779008629729559 
145.051942629221 0.027787639934200182 
145.060528218039 0.03206805351655508 
146.06383139942 0.0904892909930528 
146.074656777324 0.029470039532912638 
147.071345794794 0.06033265550876609 
148.108448565493 0.03743917231031958 
154.064810871795 0.06586021554768741 
155.072605324954 0.04778111979908324 
156.078007763925 0.0537541436587355 
157.087215216444 0.04756018591309584 
158.066106394671 0.03433450918003001 
159.067580286002 0.2655340775491852 
160.074567916748 0.2298927721257399 
161.081213084596 0.06776020234467628 
162.090470100701 0.07431464429171883 
167.0729347438 0.06474335367506996 
168.078881615145 0.0640726512092567 
169.084102792776 0.053519691779248806 
170.061851927695 0.02829079802621546 
172.077535276524 0.027663917483017858 
173.080009112965 0.045362147045845944 
174.091207290742 0.5272819357346714 
175.093508267883 0.12843173951377745 
176.10352479493 0.030437192908591853 
180.079206063286 0.04405099354627366 
181.085708805399 0.043513108647657305 
182.067530409287 0.029243908437774052 
183.066231877217 0.03401566827316427 
184.076036479571 0.06637351869695991 
185.082498705302 0.06842856869122461 
186.089870869733 0.055267922693876245 
187.089849061556 0.03953409382327441 
188.098706360854 0.04893773507200103 
189.102661294017 0.0664384838113497 
193.08618843927 0.036080193987143995 
194.09474464791 0.04917822411363304 
195.090766080767 0.04199112694655826 
196.088838873384 0.02813380556190624 
197.085286363698 0.04265895519821972 
198.090350468417 0.05982301402957737 
199.093635870881 0.03129733102311262 
200.105565757117 0.09091890070101952 
201.106241615231 0.04056010952987043 
202.111436777423 0.02788432639838393 
205.087467068767 0.028992736243997945 
206.093739999874 0.03442946324116337 
207.099502366714 0.029178812080728932 
208.107542847171 0.04236191369640477 
210.093094552505 0.07444025663713795 
211.093802784813 0.03135978940278555 
212.102831562647 0.030138747110364836 
223.096239883786 0.055419494836520214 
224.101070621495 0.07482238275240523 
225.102279001799 0.04543207313260732 
228.10128228233 0.07981376404722951 
229.105682625286 0.024816909933677838 
236.107031080245 0.07126039146534262 
237.111906123386 0.058385815083823366 
238.118905737926 0.06380593988508919 
239.117332632639 0.10383393919317789 
248.108359554443 0.026182765371992867 
250.118938385983 0.052013629812241634 
251.122923192524 0.05799868862338792 
252.131914980581 0.048074145275645006 
253.133868143715 0.028177732478646165 
265.135700500545 0.030743040792579644 
266.151369871646 0.05482757733670329 
267.116513909683 0.04139503593030175 
280.167163990793 0.03698633265235894 
309.193453420942 0.056728430335217364 
310.19615559058 0.02984871396634466 
337.192268698474 0.0649118692445174 
338.193792984167 0.02888904142201942 
354.194098431029 0.05823295676315714 
369.217928667509 1.0 
370.220225879354 0.4953050564907761 
371.225992185599 0.0922392805592617 
END IONS

BEGIN IONS
TITLE=10_hydroxygeissoschizol.mgf
PEPMASS=313.1902805
CHARGE=1+
RETENTION_TIME=699.116
PRECURSOR_MZ=313.1902805
SMILES=OC1=CC=C(NC2=C3CCN4C2CC(CCO)/C(C4)=C\C)C3=C1
INCHI=InChI=1S/C19H24N2O2/c1-2-12-11-21-7-5-15-16-10-14(23)3-4-17(16)20-19(15)18(21)9-13(12)6-8-22/h2-4,10,13,18,20,22-23H,5-9,11H2,1H3/b12-2-
COMPOUND_NAME=10_hydroxygeissoschizol.mgf
IONMODE=positive
SKELETON=Corynanthean
103.053143211162 0.039578587709094344 
105.067871779618 0.08236361919397 
108.079795327149 0.025082066712738604 
111.079701949003 0.029677321875442655 
115.052874138955 0.3027495503693624 
116.054889617155 0.06758319776450944 
117.057553308445 0.19322699586640282 
118.062065037613 0.0403573522657521 
127.052727527132 0.04101853036240873 
130.063801525498 0.06239715155235246 
131.066478041718 0.04020746107851259 
132.078832536382 0.14064755396640755 
133.052578513315 0.026058806107250324 
133.065053159666 0.025809013216350672 
142.063558616898 0.060768952092338464 
143.070616351455 0.07075816954187038 
146.058741200144 0.09514707965437462 
154.063805566778 0.033735630062368814 
154.120686460996 0.07636384239963256 
159.066258117518 0.10134095094197082 
160.073936034158 1.0 
161.077358796097 0.14023316406903924 
166.121126966044 0.026063029845172534 
170.059228904354 0.027569925612420536 
172.073672035969 0.03663344050066747 
174.089412876447 0.026433216436521596 
183.066468125653 0.034165386811120795 
184.073131358228 0.03649796324832918 
196.074067417123 0.04073841584073418 
210.088850281625 0.03228335100378162 
222.089294000978 0.03079018238478081 
236.105086223791 0.03304796775536659 
END IONS

BEGIN IONS
TITLE=3_4_5_6_tetradehydrogeissoschizol.mgf
PEPMASS=293.1648252
CHARGE=1+
RETENTION_TIME=964.385
PRECURSOR_MZ=293.1648252
SMILES=C/C=C(C1)\C(CCO)CC2=[N+]1C=CC3=C2NC4=CC=CC=C43
INCHI=InChI=1S/C19H20N2O/c1-2-13-12-21-9-7-16-15-5-3-4-6-17(15)20-19(16)18(21)11-14(13)8-10-22/h2-7,9,14,22H,8,10-12H2,1H3/p+1/b13-2-
COMPOUND_NAME=3_4_5_6_tetradehydrogeissoschizol.mgf
IONMODE=positive
SKELETON=Corynanthean
111.080185928486 0.10784493128078129 
115.053688675843 0.10735927179868072 
127.053862268717 0.2231513798519065 
128.053042652516 0.10947945924786832 
129.057157046784 0.04094518574553631 
130.064287843908 0.025803695523438284 
140.049363456528 0.05401050083122336 
153.057207987267 0.03933337312921918 
154.065114067441 0.6470599732804083 
154.175254407578 0.03324124811871994 
155.070464049346 0.16892122686137773 
167.064210573169 0.0290200492025063 
168.068671510357 0.03991977255066448 
179.064672749931 0.03982714146328064 
180.070959916324 0.024796842883201362 
181.07621188538 0.7668940138711554 
182.083290836765 1.0 
182.202172587092 0.04067796341560693 
183.088762302823 0.17597175478197755 
193.076329339423 0.028626941568193863 
204.080190512739 0.03820859348132825 
205.077356384298 0.12649970179498815 
206.084104531186 0.34431585325460795 
207.08913139916 0.08962193732359285 
217.078581272943 0.025796394915353623 
218.084370095083 0.08456803590927173 
219.091586827721 0.2461255007282119 
220.098099262405 0.1213187528955469 
221.106199778114 0.051418969853559954 
230.083995699296 0.11295855293706844 
231.091875684781 0.3119586284788164 
232.09933159854 0.45767284929209984 
233.107077116824 0.7702912794711867 
234.112070802116 0.1899468460791984 
243.092044201275 0.03409978272502857 
245.107124486047 0.11947521728817805 
246.113317656588 0.05604930921561781 
247.123182326559 0.3704823525496397 
248.128130964781 0.13200661597797772 
249.137502117455 0.06027843209140235 
259.122849062315 0.03719459078823852 
260.129644961683 0.025410371300897575 
263.150859366272 0.030087961233876727 
264.127677424863 0.0487507349472502 
275.154200904741 0.032811558204388504 
293.16482524637 0.36840231316227795 
294.1683817572 0.08690969802846604 
END IONS

BEGIN IONS
TITLE=6_7_dihydroflavopereirine.mgf
PEPMASS=249.138753
CHARGE=1+
RETENTION_TIME=992.488
PRECURSOR_MZ=249.138753
SMILES=CCC1=C[N+](CC2)=C(C=C1)C3=C2C4=CC=CC=C4[N-]3
INCHI=InChI=1S/C17H16N2/c1-2-12-7-8-16-17-14(9-10-19(16)11-12)13-5-3-4-6-15(13)18-17/h3-8,11H,2,9-10H2,1H3
COMPOUND_NAME=6_7_dihydroflavopereirine.mgf
IONMODE=positive
SKELETON=Corynanthean
102.046042968297 0.055152778943273015 
115.054185288117 0.23127326752311494 
116.055811990885 0.06755794471483935 
117.057845735741 0.07928158184828049 
128.051051094589 0.06035421466387965 
130.064958478447 0.02695478185743493 
139.054122283036 0.037999631915413015 
140.051042671018 0.0556335775151811 
141.057508460148 0.030870400849836745 
142.064706300488 0.06505177500686582 
143.072854232827 0.07531454067620762 
151.054321393734 0.05002698651246529 
152.061483192661 0.07462345232827805 
153.066267560075 0.02984210029446767 
154.065789228139 0.03650769735436819 
163.055024532999 0.025209097792255348 
164.060943904324 0.059942384272680116 
165.069932836805 0.21473651914039854 
166.068560348396 0.07252937524793263 
167.072723522049 0.10853598646669312 
168.078097849453 0.03578640413780477 
177.062976667201 0.028944107404412438 
178.073207449139 0.10127332473833572 
179.078984547556 0.07312534329132464 
180.080906067021 0.10259187334075859 
181.084527821384 0.025905788463885755 
189.068487076131 0.030216192479631383 
190.066157611151 0.11765263590522108 
191.073094105412 0.22394464141313966 
192.077981575638 0.13569428763235789 
193.082967964991 0.04276322815904306 
203.072068397905 0.02668672854810656 
204.081192052077 0.17905829944920815 
205.081195364014 0.1908594632067987 
206.094034992578 0.20660385230081474 
207.096964143972 0.1181290479768698 
208.101782278163 0.025747659897470326 
216.076910197846 0.07610806810899881 
217.082721548543 0.1665790638064142 
218.085499100748 0.46106313508895064 
219.091624143172 0.9737487031216625 
219.220682962428 0.03148105413322755 
220.098014357526 0.27405804674864975 
221.104471076948 0.031014988480668883 
230.08526420122 0.03890010413170181 
231.09249483975 0.12513359754050837 
232.100307621986 0.1716417049372921 
233.10816434322 0.37463000823899184 
234.114908555649 1.0 
234.248927021678 0.062466004622989846 
235.119278176202 0.18437669261694792 
247.123639115471 0.07563272882273962 
248.129014891221 0.03463661659699124 
249.138752960943 0.5742567742821397 
249.2765813241 0.03032385245338867 
250.14279586047 0.13613701424277563 
END IONS

BEGIN IONS
TITLE=Corynantheidal.mgf
PEPMASS=297.1958781
CHARGE=1+
RETENTION_TIME=865.643
PRECURSOR_MZ=297.1958781
SMILES=[H][C@](N1CC2)(C[C@H](CC=O)[C@H](CC)C1)C3=C2C4=CC=CC=C4N3
INCHI=InChI=1S/C19H24N2O/c1-2-13-12-21-9-7-16-15-5-3-4-6-17(15)20-19(16)18(21)11-14(13)8-10-22/h3-6,10,13-14,18,20H,2,7-9,11-12H2,1H3/t13-,14+,18+/m1/s1
COMPOUND_NAME=Corynantheidal.mgf
IONMODE=positive
SKELETON=Corynanthean
103.054012033657 0.031650092292723676 
108.080392098604 0.02955813928426826 
110.096125399211 0.08076724324174536 
115.053789865012 0.15943333242674185 
116.057737301031 0.04972265998046894 
117.065947127788 0.18652218335282506 
118.067145322245 0.04182867884133503 
127.053578121785 0.1020328004799119 
128.055519708562 0.0712980662403634 
129.06457096096 0.027972941836340394 
130.064771506119 0.08614300574077675 
143.07246937773 0.20398703539966057 
144.080400985542 1.0 
145.083563571184 0.1466164209718216 
154.065037070499 0.029299909529012038 
154.122116302319 0.03280660710189558 
167.072832455127 0.07059472230333079 
168.079191172878 0.04325068982203951 
180.080378070454 0.04349506925418139 
182.095098407231 0.028590258794236746 
193.087528851668 0.027499613843344067 
194.095136610624 0.04263024768934633 
206.095047192481 0.03300209730531931 
225.138335293075 0.030780698427816416 
297.195878102782 0.056545958286870514 
END IONS

BEGIN IONS
TITLE=corynantheidane.mgf
PEPMASS=283.2162957
CHARGE=1+
RETENTION_TIME=193.583
PRECURSOR_MZ=283.2162957
SMILES=CC[C@H]([C@H](CC)C1)C[C@@](N1CC2)([H])C3=C2C4=CC=CC=C4N3
INCHI=InChI=1S/C19H26N2/c1-3-13-11-18-19-16(9-10-21(18)12-14(13)4-2)15-7-5-6-8-17(15)20-19/h5-8,13-14,18,20H,3-4,9-12H2,1-2H3/t13-,14+,18-/m0/s1
COMPOUND_NAME=corynantheidane.mgf
IONMODE=positive
SKELETON=Corynanthean
103.05438947675 0.046356356817524 
115.054361354778 0.17967120327741667 
115.061975647055 0.02712700974411799 
116.049347958796 0.030395061085811324 
117.05757872874 0.1033395944868556 
117.069942771803 0.3358912507618362 
117.077061890597 0.05402212586852843 
118.065489489992 0.03065506131792299 
127.054265458281 0.2291247385666542 
127.061444728273 0.030591849574760875 
128.049868208172 0.07590012727456241 
129.069835988227 0.03048399502155649 
130.064908945104 0.07587417297031537 
140.144007027135 0.03489396893009535 
142.06524738762 0.025566804374531158 
143.073023672353 0.410571771915825 
143.081194280603 0.05960666216745168 
144.080886928274 1.0 
144.088389472683 0.13498408100837744 
144.104917886263 0.050097750662133685 
167.073189430042 0.028349492642587775 
168.080729067198 0.0745541609708457 
180.081109652909 0.024767647432229544 
END IONS

BEGIN IONS
TITLE=Corynantheidine.mgf
PEPMASS=369.2170445
CHARGE=1+
RETENTION_TIME=1033.4649375
PRECURSOR_MZ=369.2170445
SMILES=[H][C@](N1CC2)(C[C@@](/C(C(OC)=O)=C\OC)([H])[C@H](CC)C1)C3=C2C4=CC=CC=C4N3
INCHI=InChI=1S/C22H28N2O3/c1-4-14-12-24-10-9-16-15-7-5-6-8-19(15)23-21(16)20(24)11-17(14)18(13-26-2)22(25)27-3/h5-8,13-14,17,20,23H,4,9-12H2,1-3H3/b18-13+/t14-,17+,20+/m1/s1
COMPOUND_NAME=Corynantheidine.mgf
IONMODE=positive
SKELETON=Corynanthean
108.079624872138 0.030753067357225945 
110.09569962794 0.14538089237245888 
115.053400911262 0.11234365479421703 
116.056673367614 0.033693073865839474 
117.06721212419 0.1712429720822024 
118.06818100761 0.035719305655569716 
127.053311077896 0.09330405611255746 
128.056724410066 0.06482835262837201 
129.054254207509 0.053704370464742704 
129.062480974226 0.03225088281726029 
130.064001796943 0.05506259347476873 
143.07272624117 0.18003541655126573 
144.079954347669 1.0 
144.186805509239 0.03850831579238907 
145.083275586162 0.14937527696227773 
154.064624530123 0.03485961474547166 
155.071580137608 0.03619568077327868 
156.078995829365 0.02821346867556639 
158.095224922584 0.02970359843239351 
167.072896309851 0.03048059879244447 
168.079667170237 0.03271698263446519 
170.095323913262 0.06399476541295075 
171.099504001414 0.03820227247548884 
226.143199416701 0.0571940259236692 
238.142778573394 0.05286784052512048 
END IONS

BEGIN IONS
TITLE=Corynantheidol.mgf
PEPMASS=299.2113561
CHARGE=1+
RETENTION_TIME=859.884
PRECURSOR_MZ=299.2113561
SMILES=[H][C@](N1CC2)(C[C@H](CCO)[C@H](CC)C1)C3=C2C4=CC=CC=C4N3
INCHI=InChI=1S/C19H26N2O/c1-2-13-12-21-9-7-16-15-5-3-4-6-17(15)20-19(16)18(21)11-14(13)8-10-22/h3-6,13-14,18,20,22H,2,7-12H2,1H3/t13-,14+,18+/m1/s1
COMPOUND_NAME=Corynantheidol.mgf
IONMODE=positive
SKELETON=Corynanthean
103.054210950493 0.028669992535996256 
115.054314482663 0.17212786588592113 
116.057985613172 0.05432720194577484 
117.066786914008 0.20651610909504078 
118.068926387462 0.03880887951792605 
127.05407647452 0.11444150407933375 
128.055655942911 0.06779396802636499 
130.065108107965 0.05294044138906483 
142.064924992537 0.0256290925415082 
143.072802137736 0.2277673276419061 
144.080382554005 1.0 
144.187097121404 0.0476465106727692 
145.083867958363 0.15971545251741484 
156.1379629272 0.13266310519668575 
158.096306727318 0.024633401207811514 
167.07287941038 0.030214271230872124 
168.079607503668 0.02923760305787359 
END IONS

BEGIN IONS
TITLE=Corynantheine.mgf
PEPMASS=367.2013931
CHARGE=1+
RETENTION_TIME=1094.747
PRECURSOR_MZ=367.2013931
SMILES=[H][C@](N1CC2)(C[C@@](/C(C(OC)=O)=C\OC)([H])[C@@H](C=C)C1)C3=C2C4=CC=CC=C4N3
INCHI=InChI=1S/C22H26N2O3/c1-4-14-12-24-10-9-16-15-7-5-6-8-19(15)23-21(16)20(24)11-17(14)18(13-26-2)22(25)27-3/h4-8,13-14,17,20,23H,1,9-12H2,2-3H3/b18-13+/t14-,17-,20-/m0/s1
COMPOUND_NAME=Corynantheine.mgf
IONMODE=positive
SKELETON=Corynanthean
103.054327933146 0.029013332407275425 
108.081580129304 0.09252962005647607 
115.054654849371 0.16751095420172527 
116.05768800848 0.04183436996632676 
117.068205668873 0.18377247726278817 
118.068466911155 0.04525859023027749 
127.054790499717 0.10303446833305942 
128.057146634996 0.07011783413899025 
129.067469033291 0.04387386445177304 
130.066151147138 0.06273936005898774 
142.065870112996 0.053692972229973025 
143.073886679794 0.19467943388249373 
144.081124832179 1.0 
144.188171649816 0.028871605166595527 
145.084154557816 0.14686666017887723 
154.065734746314 0.056237020214848124 
155.07257781478 0.04488050824427092 
156.080250942006 0.06672393957956702 
157.08729387411 0.0279960685611281 
158.095660253885 0.026268088919326762 
167.073464607341 0.08706299791596589 
168.080036160243 0.09078183381271637 
169.080795479855 0.06267608392184448 
170.094774246418 0.06942805559739416 
180.08153431459 0.0442210150267702 
181.084041037954 0.028338139277763665 
182.092786605627 0.031038257632810227 
197.107985589948 0.12351756367085587 
198.110836769147 0.02905035722549281 
206.09245286022 0.030564574973742622 
221.107609880269 0.06483554867114054 
222.117445394508 0.03255043213119441 
224.128929159451 0.03283504149291303 
251.153979272219 0.0857337952316363 
367.201393095826 0.05247320051670801 
END IONS

BEGIN IONS
TITLE=Corynantheol.mgf
PEPMASS=297.194697
CHARGE=1+
RETENTION_TIME=819.449
PRECURSOR_MZ=297.194697
SMILES=[H][C@](N1CC2)(C[C@H](CCO)[C@@H](C=C)C1)C3=C2C4=CC=CC=C4N3
INCHI=InChI=1S/C19H24N2O/c1-2-13-12-21-9-7-16-15-5-3-4-6-17(15)20-19(16)18(21)11-14(13)8-10-22/h2-6,13-14,18,20,22H,1,7-12H2/t13-,14-,18-/m0/s1
COMPOUND_NAME=Corynantheol.mgf
IONMODE=positive
SKELETON=Corynanthean
103.05382247273 0.027524270962500534 
115.053804556477 0.1995646085432078 
116.057772881224 0.06257060546457434 
117.066078902408 0.23000785692906314 
118.068483003918 0.04177976546799504 
127.053799886302 0.12634786419805874 
128.055810068673 0.0765920703809809 
129.063282558107 0.026866512378671912 
130.064878704282 0.03437565741651345 
142.06450267289 0.027886154701329796 
143.072166605636 0.24294709667764142 
144.079928371314 1.0 
144.186257759752 0.0698888271261812 
145.08326843351 0.16935546457433617 
154.121926346307 0.049169821909607905 
167.072193316652 0.02501934835592423 
END IONS

BEGIN IONS
TITLE=Corynanthine.mgf
PEPMASS=355.2013861
CHARGE=1+
RETENTION_TIME=854.871
PRECURSOR_MZ=355.2013861
SMILES=[H][C@](N1CC2)(C[C@@]([C@H](C(OC)=O)[C@@H](O)CC3)([H])[C@]3([H])C1)C4=C2C5=C(N4)C=CC=C5
INCHI=InChI=1S/C21H26N2O3/c1-26-21(25)19-15-10-17-20-14(13-4-2-3-5-16(13)22-20)8-9-23(17)11-12(15)6-7-18(19)24/h2-5,12,15,17-19,22,24H,6-11H2,1H3/t12-,15-,17-,18-,19-/m0/s1
COMPOUND_NAME=Corynanthine.mgf
IONMODE=positive
SKELETON=Corynanthean
115.054199918515 0.1261920714259429 
116.0579652722 0.03262653525551956 
117.068368803894 0.20651872126650095 
118.07002506066 0.03433929606972049 
127.054165510633 0.08723385626239594 
128.055447069677 0.04271509438990129 
130.065153317624 0.04590808325751433 
134.096095917271 0.0271889295371805 
143.072718020598 0.16393458120627719 
144.080363182711 1.0 
144.189077536052 0.0563101016291886 
145.08378463504 0.15274496517401573 
162.090954041017 0.029959666827821703 
180.099945894671 0.026235202604874493 
212.127391835185 0.15603246449196193 
213.130971495135 0.025780377407332678 
224.127652798405 0.029070275016781697 
355.201116054616 0.05424466507034354 
END IONS

BEGIN IONS
TITLE=dihydro-corynantheidal.mgf
PEPMASS=297.1956635
CHARGE=1+
RETENTION_TIME=152.257
PRECURSOR_MZ=297.1956635
SMILES=CC[C@@H](C1)[C@@H](CC=O)C[C@@](N1CC2)([H])C3=C2C4=CC=CC=C4N3
INCHI=InChI=1S/C19H24N2O/c1-2-13-12-21-9-7-16-15-5-3-4-6-17(15)20-19(16)18(21)11-14(13)8-10-22/h3-6,10,13-14,18,20H,2,7-9,11-12H2,1H3/t13-,14-,18-/m0/s1
COMPOUND_NAME=dihydro-corynantheidal.mgf
IONMODE=positive
SKELETON=Corynanthean
103.053741269865 0.029176840687040264 
110.096521189825 0.06129183494860759 
115.05420769023 0.20215170628857437 
117.069955021869 0.2785290093456285 
117.077071107369 0.03822234065947298 
127.054168476866 0.18361647370619097 
127.062021793255 0.02655294155670908 
128.04944318359 0.040697427116201515 
130.065019098507 0.06092014547924943 
142.064532099508 0.028499775342420607 
143.072978844926 0.2897357152317839 
143.081028793754 0.05114904905520239 
144.080758779894 1.0 
144.088659829275 0.13744696465112802 
144.10448111996 0.046669605065283774 
156.080389833231 0.029328277006280906 
167.073689510958 0.0339700194618738 
168.080624661673 0.04621044172940073 
180.080815435298 0.02725150305109708 
193.08924043843 0.025058838738951695 
206.096353431907 0.036844977397989934 
END IONS

BEGIN IONS
TITLE=dihydrocorynantheol.mgf
PEPMASS=299.2116067
CHARGE=1+
RETENTION_TIME=197.941
PRECURSOR_MZ=299.2116067
SMILES=OCC[C@@H]1[C@@H](CC)CN2[C@@](C3=C(CC2)C4=C(N3)C=CC=C4)([H])C1
INCHI=InChI=1S/C19H26N2O/c1-2-13-12-21-9-7-16-15-5-3-4-6-17(15)20-19(16)18(21)11-14(13)8-10-22/h3-6,13-14,18,20,22H,2,7-12H2,1H3/t13-,14-,18-/m0/s1
COMPOUND_NAME=dihydrocorynantheol.mgf
IONMODE=positive
SKELETON=Corynanthean
103.054016594621 0.030401741646122617 
110.096340437355 0.03086739975600249 
115.054161337744 0.24297450428514297 
115.061300039501 0.025882288919374514 
117.069826733148 0.30137406792445187 
117.076857645227 0.041983821243982325 
127.054305362182 0.18042856492004272 
127.061500953949 0.02918403208415383 
128.049520426102 0.046304956389241834 
130.065146720412 0.05144166080296442 
143.073071943465 0.3146722485737283 
143.080345888908 0.04023602456174099 
144.081065896176 1.0 
144.097024927141 0.05202659041322649 
144.108767927193 0.06752599434047271 
168.080682514423 0.031278905099142974 
END IONS

BEGIN IONS
TITLE=Epicatechocorynantheidine.mgf
PEPMASS=655.275
CHARGE=1+
SMILES=C[C@@H]1[C@@]([C@]2([H])OC3=C1C4=C(C[C@@H](O)[C@@H](C5=CC(O)=C(O)C=C5)O4)C(O)=C3)([H])[C@@H](/C(C(OC)=O)=C\OC)C[C@@](N2CC6)([H])C7=C6C8=CC=CC=C8N7
INCHI=InChI=1S/C37H38N2O9/c1-17-31-21(23(16-45-2)37(44)46-3)13-25-33-20(19-6-4-5-7-24(19)38-33)10-11-39(25)36(31)47-30-15-27(41)22-14-29(43)34(48-35(22)32(17)30)18-8-9-26(40)28(42)12-18/h4-9,12,15-17,21,25,29,31,34,36,38,40-43H,10-11,13-14H2,1-3H3/b23-16+/t17-,21-,25+,29-,31+,34-,36+/m1/s1
SPECTRUM_ID=CCMSLIB00005721089
PRECURSOR_MZ=655.275
COMPOUND_NAME=Epicatechocorynantheidine.mgf
IONMODE=positive
SKELETON=Corynanthean
123.04406 0.38396770901621474 
138.055389 0.1293874943572653 
144.080566 0.6756546499542666 
147.044464 0.1575622164001676 
165.054596 0.9939355802809794 
170.09552 0.3084096610965447 
171.091736 0.23198273443177833 
197.106369 0.27138058671104304 
223.121933 0.08968179751350232 
225.054626 0.7803452815711153 
226.066513 0.09906899603336268 
227.069748 0.07210140868986654 
253.0495 0.7827368889578219 
257.080505 0.21174909221862423 
273.075928 0.07196514809597986 
285.075134 0.6025292913343212 
317.101807 0.8851493349912962 
339.170441 0.981106562170554 
365.185333 0.1725266009119887 
437.122528 0.11313268565176975 
469.148834 0.47448281071970005 
655.26532 1.0 
656.266907 0.10336638181916961 
END IONS

BEGIN IONS
TITLE=Epicathechocorynantheine-A.mgf
PEPMASS=657.276
CHARGE=1+
SMILES=CO/C=C([C@@H](C[C@]12[H])[C@H]([C@@H](N1CCC3=C2NC4=CC=CC=C34)C(C(O[C@@H]5C(C=C6)=CC(O)=C6O)=C(C(O)=C7)C[C@H]5O)=C7O)CC)/C(OC)=O
INCHI=InChI=1S/C37H40N2O9/c1-4-19-22(24(17-46-2)37(45)47-3)14-26-33-21(20-7-5-6-8-25(20)38-33)11-12-39(26)34(19)32-30(43)16-28(41)23-15-31(44)35(48-36(23)32)18-9-10-27(40)29(42)13-18/h5-10,13,16-17,19,22,26,31,34-35,38,40-44H,4,11-12,14-15H2,1-3H3/b24-17+/t19-,22+,26+,31-,34-,35-/m1/s1
SPECTRUM_ID=CCMSLIB00005721087
PRECURSOR_MZ=657.276
COMPOUND_NAME=Epicathechocorynantheine-A.mgf
IONMODE=positive
SKELETON=Corynanthean
123.043785 0.18967383463018234 
139.037964 0.10843130074069733 
144.079544 0.11069911413799544 
147.043533 0.09464613079954737 
151.038391 1.0 
171.090881 0.31339836011176747 
185.10611 0.23389376966326944 
303.084503 0.4473958405812493 
505.229156 0.10202312985692157 
657.276001 0.6339245679631739 
END IONS

BEGIN IONS
TITLE=Epicatechocorynantheine-B.mgf
PEPMASS=657.275
CHARGE=1+
SMILES=CC[C@@H]([C@@H]1C2=C(O)C(C[C@@H](O)[C@@H](C3=CC(O)=C(O)C=C3)O4)=C4C=C2O)[C@@H](/C(C(OC)=O)=C\OC)C[C@@](N1CC5)([H])C6=C5C7=CC=CC=C7N6
INCHI=InChI=1S/C37H40N2O9/c1-4-19-22(24(17-46-2)37(45)47-3)14-26-33-21(20-7-5-6-8-25(20)38-33)11-12-39(26)34(19)32-29(42)16-31-23(35(32)44)15-30(43)36(48-31)18-9-10-27(40)28(41)13-18/h5-10,13,16-17,19,22,26,30,34,36,38,40-44H,4,11-12,14-15H2,1-3H3/b24-17+/t19-,22+,26+,30-,34-,36-/m1/s1
SPECTRUM_ID=CCMSLIB00005721088
PRECURSOR_MZ=657.275
COMPOUND_NAME=Epicatechocorynantheine-B.mgf
IONMODE=positive
SKELETON=Corynanthean
123.044006 0.47845531989272744 
139.03891 0.23747150007998644 
144.079865 0.1358474497926712 
147.043793 0.23539501132793847 
151.038727 1.0 
163.03952 0.09527669194706016 
165.054855 0.1423615116201393 
171.091156 0.442578818353081 
181.049454 0.11696850594848344 
185.106689 0.315676462196495 
193.051254 0.08231782717548466 
303.085785 0.893472990648838 
505.231537 0.18089424354753178 
639.266357 0.07690432022259813 
657.277954 0.9346706636854525 
658.282043 0.09863689930001057 
END IONS

BEGIN IONS
TITLE=flavopereirine.mgf
PEPMASS=247.1228196
CHARGE=1+
RETENTION_TIME=236.312
PRECURSOR_MZ=247.1228196
SMILES=CCc1ccc2c3[n-]c4ccccc4c3cc[n+]2c1
INCHI=InChI=1S/C17H14N2/c1-2-12-7-8-16-17-14(9-10-19(16)11-12)13-5-3-4-6-15(13)18-17/h3-11H,2H2,1H3
COMPOUND_NAME=flavopereirine.mgf
IONMODE=positive
SKELETON=Corynanthean
101.038835137805 0.0018663938559192548 
102.04647705492 0.0011315838011752071 
115.054001907202 0.003939265320911877 
127.054427930524 0.0012176670697528224 
128.049447888081 0.015181285088140536 
128.057304591972 0.0023751855360463797 
129.057339651513 0.0029805099840220723 
130.064637504345 0.001433127897636489 
140.049572473985 0.004327843831035597 
141.057375090286 0.0012876714571346249 
151.054181240952 0.0035367328630176455 
152.062035477113 0.003145788222608331 
153.044602687731 0.0020245873460050814 
154.06489646049 0.002998462233592065 
155.060173403333 0.005013676189395196 
166.065266345547 0.0031645862982721137 
167.06063010694 0.003180078558144814 
167.072095772144 0.0013306296002025618 
168.068032472143 0.012184725144718115 
168.077277785707 0.00188810921306523 
176.049527128358 0.0011862689137628456 
176.062050676816 0.004508491548287393 
177.057530665647 0.001625404359442257 
177.069801037425 0.00731149537687828 
177.078397319988 0.0012398648206193848 
178.064851543968 0.0049384227689836125 
179.072809834315 0.004270906092567208 
180.081065169384 0.0013837245597338758 
181.075812048 0.004000199178402731 
182.083702370118 0.012107476666113696 
182.093043919137 0.001727478652440781 
190.065081738577 0.005772446587446413 
191.072637734282 0.005535446115966578 
192.067801564557 0.005933175373036592 
192.078601363521 0.00121262103498555 
193.07607913283 0.05243107335876997 
193.085330821502 0.007446527420044878 
193.104032233874 0.0018689962718168563 
202.064956568787 0.0027894165873591018 
203.059605387278 0.0020291957339805995 
203.0728474322 0.019648823919743652 
203.082375994933 0.0028355282975212385 
204.080797381894 0.14826425571669302 
204.089980035435 0.018674825159561 
204.109533165462 0.0015411175163489998 
204.114061583312 0.005082234487003745 
205.076004290706 0.06358402163568579 
205.08708624524 0.016943249980355006 
205.109302219794 0.002928046938436957 
206.083778147169 0.09251329311202885 
206.094436771609 0.01605515986658867 
206.11671381088 0.003723758109016615 
214.064748093256 0.0011856697414718903 
216.068185585049 0.010191080300000873 
216.078849997991 0.002347905188897523 
217.075900585526 0.022650202343429404 
217.086317631896 0.003369582893139968 
219.091197508667 0.0012716569678607914 
229.07612628391 0.04625196449931461 
229.086155960347 0.0071194710258178865 
229.110345313471 0.0012089490583499952 
230.084010071971 0.33616392218836494 
230.094075334296 0.028071298228458174 
230.104258410195 0.015216422341159316 
230.11454984642 0.0044660234386596 
230.119280075317 0.012922269127674992 
231.092007883207 1.0 
231.101811133048 0.016590131228554215 
231.11357523664 0.00994937048710852 
231.126906250625 0.04774752145669807 
232.10921885897 0.024034039316179617 
232.134762037319 0.008245232814996551 
245.107409531158 0.008527836955287995 
245.118485183069 0.0012213537801332368 
247.123529178812 0.003675473990029074 
END IONS

BEGIN IONS
TITLE=Geissoschizine.mgf
PEPMASS=353.1862868
CHARGE=1+
RETENTION_TIME=1098.462
PRECURSOR_MZ=353.1862868
SMILES=C/C=C(C1)\C(/C(C(OC)=O)=C/O)C[C@@](N1CC2)([H])C3=C2C4=CC=CC=C4N3
INCHI=InChI=1S/C21H24N2O3/c1-3-13-11-23-9-8-15-14-6-4-5-7-18(14)22-20(15)19(23)10-16(13)17(12-24)21(25)26-2/h3-7,12,16,19,22,24H,8-11H2,1-2H3/b13-3-,17-12-/t16?,19-/m0/s1
COMPOUND_NAME=Geissoschizine.mgf
IONMODE=positive
SKELETON=Corynanthean
103.053732855104 0.06890923299091209 
105.068991984294 0.053893947025386246 
106.066421848308 0.043971339023806615 
108.080548279993 0.254343506685832 
109.079363646412 0.035050727317451104 
115.053974961805 0.19011996178090282 
116.057270259159 0.052017496448334775 
117.066029147797 0.21134695544061566 
118.067067139248 0.06830191078752425 
127.05419358115 0.15388270217718336 
128.059995807347 0.28095584556405795 
129.067690857094 0.12431601370131208 
130.06550970806 0.2736953215072782 
131.071005129058 0.07253332039283342 
132.078568809721 0.03490484549210435 
136.075401358569 0.08362378620063018 
141.067252160459 0.027143667995856813 
142.069136436174 0.05845316403589651 
143.076977659101 0.30723846942890565 
144.0806360034 1.0 
145.08399230529 0.14422254090062533 
152.06772030796 0.0990199913990298 
153.070394697158 0.059233810848935836 
154.065379890837 0.32293380097622687 
155.072049337367 0.3132626625859469 
156.078563909266 0.12175051497054085 
158.095676700907 0.06049263144508013 
167.072786376087 0.17778476490402556 
168.07976378565 0.1690379128758532 
168.091723955675 0.05558522574200102 
169.085243527566 0.08905862883132226 
170.096524079463 0.781236498233789 
171.098331657691 0.1770761721331912 
172.110165847445 0.08065521320868062 
180.081402347212 0.09416419151716765 
181.086288311156 0.04074875294298762 
182.093653285418 0.03621881939133913 
191.074294957853 0.04567690806834593 
192.080489150304 0.04256774100704979 
193.088601506158 0.043197017437881416 
194.095708174893 0.04507233014338855 
204.081231353528 0.11198476590802986 
205.087209736516 0.06687843348555154 
206.094622183524 0.07724681939803249 
207.100109940045 0.04815264881435458 
208.10829809835 0.03131479383608291 
216.081166129711 0.0249177770675377 
217.088274637119 0.08212393763794601 
218.094982969609 0.08364272841516247 
219.100965369348 0.05293244557041669 
220.108532262425 0.042389429842689265 
221.110722242685 0.031208476473669155 
222.123351629894 0.038648710607472804 
230.096298399419 0.05473168821650349 
231.102317410925 0.04533554660504312 
232.109004283056 0.038853627885884874 
233.108407118404 0.02560290291111048 
234.126492100416 0.026986983084200823 
251.154306675039 0.07409685629519065 
252.156371741438 0.025292043098558082 
END IONS

BEGIN IONS
TITLE=geissoschizol.mgf
PEPMASS=297.1961594
CHARGE=1+
RETENTION_TIME=200.816
PRECURSOR_MZ=297.1961594
SMILES=C/C=C/1\CN2CCC3=C([C@@H]2C[C@@H]1CCO)NC4=CC=CC=C34
INCHI=InChI=1S/C19H24N2O/c1-2-13-12-21-9-7-16-15-5-3-4-6-17(15)20-19(16)18(21)11-14(13)8-10-22/h2-6,14,18,20,22H,7-12H2,1H3/b13-2+/t14-,18-/m0/s1
COMPOUND_NAME=geissoschizol.mgf
IONMODE=positive
SKELETON=Corynanthean
103.054065611069 0.03880462178954715 
105.069599086679 0.029299298928009317 
108.081552576108 0.029998191771382837 
109.088871854829 0.024716591371361295 
115.054033635012 0.23030965647579452 
115.061232887733 0.0264398617757233 
117.069604761096 0.351498600673574 
117.077302353977 0.056383314508020935 
127.054371872512 0.17830000831000528 
127.061844088999 0.03153241490536759 
128.049381992894 0.07666033370555975 
128.061469445832 0.08012660453540828 
129.070064039685 0.15053881289612958 
129.077470505952 0.035201956310771366 
130.065026781267 0.12674323759945702 
130.074186678145 0.033566272648776735 
131.072411345051 0.02829295372183024 
142.066142639862 0.03903487669985081 
143.072791583829 0.3373488372590678 
143.082137316765 0.06033698676355253 
144.080995573621 1.0 
144.088927694181 0.19297355171409014 
144.099267487222 0.043182746289118994 
144.107801701398 0.04257604457301374 
154.064772896342 0.06862933774251037 
155.074960772954 0.04256873319497591 
156.079615187611 0.09005285234689885 
156.083485409221 0.03659191347322912 
167.073592130419 0.0866041288243411 
168.080293201129 0.07132374104311608 
168.086299635512 0.032382746003796925 
180.080525701032 0.07154518663451562 
180.087603102922 0.027619047958716746 
181.08755036049 0.03814759639338638 
182.096086051605 0.03228542621232456 
193.088356879731 0.06955467288003027 
194.095501164246 0.08870046140145207 
204.079841376942 0.040587064424653395 
205.08813667056 0.05726667163602605 
206.096622309859 0.09334511237944695 
206.103116072164 0.03645702746474578 
208.111353922987 0.08289326565018303 
217.085976439083 0.03448688213951607 
218.096680427194 0.03783980521062297 
220.112913340212 0.05567528779188893 
232.111189908929 0.03866039148327888 
END IONS

BEGIN IONS
TITLE=Ochropposinine.mgf
PEPMASS=359.2310295
CHARGE=1+
RETENTION_TIME=995.742
PRECURSOR_MZ=359.2310295
SMILES=COC(C(OC)=C1)=CC2=C1C3=C(N2)[C@@]4(C[C@@H]([C@H](CN4CC3)CC)CCO)[H]
INCHI=InChI=1S/C21H30N2O3/c1-4-13-12-23-7-5-15-16-10-19(25-2)20(26-3)11-17(16)22-21(15)18(23)9-14(13)6-8-24/h10-11,13-14,18,22,24H,4-9,12H2,1-3H3/t13-,14-,18-/m0/s1
COMPOUND_NAME=Ochropposinine.mgf
IONMODE=positive
SKELETON=Corynanthean
103.053148034808 0.046559599534208115 
105.067248814238 0.037441091840997004 
110.095169626775 0.03431908960067542 
115.052877088436 0.13067310472893995 
116.055588390345 0.043985755898017724 
117.057293604354 0.07934691634470817 
118.063315117294 0.053618185827029895 
130.063415273114 0.2026566978634955 
131.068894161114 0.07241683277029835 
132.078500988669 0.08287403786387221 
133.061422640887 0.04182948515814654 
142.063621791518 0.08516342049018946 
143.0708906886 0.1359898908535714 
144.076967346425 0.057255883060088705 
146.059090404703 0.18622426040026635 
147.063386312974 0.03789456306527402 
156.136531904955 0.17217037523724474 
158.058455144468 0.29924890504559865 
159.064864671802 0.1235669863907666 
160.073902282833 0.48604607616871776 
161.077930546347 0.09493769313355842 
168.136550883989 0.08292258924446208 
171.065989455157 0.03949817683028844 
172.073145842257 0.05903743730257305 
173.081678533744 0.41037638953674543 
174.054440905049 0.06859042556138227 
174.070142734185 0.032000899674145114 
174.083209716898 0.09300560966772996 
188.069013955841 0.19296570047720402 
189.076086311283 0.20317762248919452 
190.081672167029 0.06543910635322847 
202.083901284057 0.030282322621818875 
204.100374375782 1.0 
205.103470841514 0.2117515835705319 
217.107946722154 0.02876220570849893 
218.114684331656 0.033810596432991454 
END IONS

BEGIN IONS
TITLE=Naucleidinal.mgf
PEPMASS=337.1543489
CHARGE=1+
RETENTION_TIME=1673.556
PRECURSOR_MZ=337.1543489
SMILES=O=C1C2=CO[C@H](C)[C@@H](C=O)[C@]2([H])C[C@@](N1CC3)([H])C4=C3C5=CC=CC=C5N4
INCHI=InChI=1S/C20H20N2O3/c1-11-15(9-23)14-8-18-19-13(12-4-2-3-5-17(12)21-19)6-7-22(18)20(24)16(14)10-25-11/h2-5,9-11,14-15,18,21H,6-8H2,1H3/t11-,14+,15?,18+/m1/s1
COMPOUND_NAME=Naucleidinal.mgf
IONMODE=positive
SKELETON=Vallesiachotaman
117.066425495705 0.02814430733047838 
118.064857409442 0.06808422327644294 
127.054112758646 0.04258000571363233 
128.050104601166 0.06309525016723039 
130.063584523878 0.03225445105595549 
143.072507396588 0.045830674372960324 
144.080178349873 0.27086935678277047 
154.064208618853 0.16807417022078608 
156.068688894088 0.035332469411611264 
171.091411547603 1.0 
267.112933621219 0.03001447290343087 
337.154348898228 0.029909116880146948 
END IONS

BEGIN IONS
TITLE=Strictosamide.mgf
PEPMASS=499.2068097
CHARGE=1+
RETENTION_TIME=1592.183
PRECURSOR_MZ=499.2068097
SMILES=O[C@@H]1[C@H]([C@@H]([C@H](O[C@H]1O[C@@H]([C@@H]([C@@]2(C[C@]34[H])[H])C=C)OC=C2C(N3CCC5=C4NC6=CC=CC=C65)=O)CO)O)O
INCHI=InChI=1S/C26H30N2O8/c1-2-12-15-9-18-20-14(13-5-3-4-6-17(13)27-20)7-8-28(18)24(33)16(15)11-34-25(12)36-26-23(32)22(31)21(30)19(10-29)35-26/h2-6,11-12,15,18-19,21-23,25-27,29-32H,1,7-10H2/t12-,15+,18+,19-,21-,22+,23-,25+,26+/m1/s1
COMPOUND_NAME=Strictosamide.mgf
IONMODE=positive
SKELETON=Vallesiachotaman
SCANS=1
103.047323895939 0.006983025063341315 
107.042092205604 0.002223900355752065 
115.04720884476 0.0033704489332412007 
117.06139730943 0.009051885164549679 
118.05810111109 0.023886252696453728 
119.061375388742 0.002787631933970458 
121.057241260233 0.010237808279557304 
122.059320577623 0.0014639962687737842 
124.032553811234 0.0012961599591064955 
125.051389713558 0.0015631404436302475 
127.046175878429 0.006473459396132105 
128.046373373554 0.007597717034394468 
129.05842260779 0.0025033497626661587 
130.05758882679 0.010856907933753136 
131.063110369265 0.0011229146723048282 
142.059135113475 0.0014439015188906718 
143.067049010797 0.013448839884022838 
144.073097293042 0.18799200954385836 
144.180578836399 0.005106266485768005 
145.07652242117 0.026880404864062003 
146.081523351371 0.0017890123958436161 
148.069531303026 0.0010076962279874104 
149.05224026266 0.005365868309752994 
150.054866439288 0.0010259854347498371 
153.046405923651 0.001799258728704807 
153.0560254212 0.0010499116550314544 
154.05747276497 0.058991061432849025 
154.168614429994 0.0019150090028458636 
155.062305413738 0.015210505131201271 
156.064080915423 0.011474634013080718 
157.071911928546 0.002369497378729409 
158.086415209865 0.0018515054610122826 
167.06504375363 0.002105234200254207 
168.072723287088 0.0060518331294014665 
169.070986418132 0.00775700580574514 
170.088078766328 0.03322361569288244 
171.084205541532 1.0 
172.087196945432 0.16725852821644172 
172.203954954353 0.0032296487091839745 
173.090402404638 0.010744760711014387 
176.062056972585 0.002421539796557875 
180.073124789799 0.0018740317062401622 
181.077926080369 0.0015268065187797146 
182.085368886987 0.0022703271862988396 
183.086613009534 0.001552694387626654 
185.100016465678 0.006988626494001802 
186.103756574762 0.001946976949194565 
194.086936311466 0.0014159016352045324 
195.090518957662 0.0010262157668029528 
197.099226056708 0.003510099792701152 
206.082758344709 0.001096347285640059 
210.081515287418 0.001045632911925155 
213.094358461835 0.0021204583072201065 
219.085767095744 0.0010149593398882314 
221.096091872255 0.0011000410159403555 
235.081072046366 0.0011977385371542437 
237.094031471675 0.006611015840876517 
238.096545646996 0.0018563665386448977 
239.107687377786 0.0018904560651173967 
253.08755079499 0.0010603733981017884 
263.074437440029 0.0036834108886608526 
265.088588308285 0.012805654843209682 
266.093582938681 0.003925508624443205 
267.105157335165 0.17789742035752737 
268.108343547495 0.0470283339034243 
268.251145125897 0.0012774582972722105 
269.112612123956 0.005437894902774622 
275.108126694298 0.0011453004991548116 
291.142037635407 0.0014548143607826392 
301.125926440793 0.001956936706129205 
302.127173932973 0.0010280385274359146 
309.150234770446 0.0019805300545068178 
319.135240797275 0.005813990414819611 
320.137417551779 0.0022003395293420844 
337.147241648602 0.06866718854859433 
338.150369265441 0.021841543025797956 
339.153343694275 0.003132181520023202 
END IONS

BEGIN IONS
TITLE=Vincosamide.mgf
PEPMASS=499.2101135
CHARGE=1+
RETENTION_TIME=1604.163
PRECURSOR_MZ=499.2101135
SMILES=[H][C@]12C[C@]3([C@H]([C@@H](OC=C3C(N1CCC4=C2NC5=CC=CC=C45)=O)O[C@@H]6O[C@H](CO)[C@@H](O)[C@H](O)[C@H]6O)C=C)[H]
INCHI=InChI=1S/C26H30N2O8/c1-2-12-15-9-18-20-14(13-5-3-4-6-17(13)27-20)7-8-28(18)24(33)16(15)11-34-25(12)36-26-23(32)22(31)21(30)19(10-29)35-26/h2-6,11-12,15,18-19,21-23,25-27,29-32H,1,7-10H2/t12-,15+,18-,19-,21-,22+,23-,25+,26+/m1/s1
COMPOUND_NAME=Vincosamide.mgf
IONMODE=positive
SKELETON=Vallesiachotaman
SCANS=1
103.058122112671 0.007094062071523044 
105.040831452323 0.0016645265365705317 
105.071927073682 0.0011445458464174663 
107.054826203125 0.002847735734775305 
115.058308196282 0.0042719239274997545 
117.073036430209 0.008899843885307136 
118.070266593594 0.022272229031110365 
121.069827172747 0.01303875836212219 
125.063156469408 0.0010203450915871192 
127.059751397335 0.004477653084147543 
128.058993577296 0.00879382539877159 
129.076710917374 0.0011898391799537562 
130.070682209395 0.008278800802302061 
135.050013216165 0.0010829574040901616 
142.073570232291 0.0011192327848549512 
143.081829595083 0.011136495895068444 
144.087461549064 0.20409909377202234 
144.194508829354 0.0059634056320721435 
144.229020044325 0.0022996231200959065 
144.296948247783 0.0010332154792577217 
145.090506899263 0.005065564658296501 
149.067308591049 0.006869111721950247 
151.046601942421 0.0011774911818532936 
153.060327577346 0.0018045373122144986 
154.073094233615 0.05502627253212746 
154.181289360718 0.001420900968954871 
155.07942450274 0.005916698350717604 
156.080488945149 0.00912438274645773 
158.103151275118 0.002100638359051081 
167.082443764391 0.0030760097733518424 
168.08466188484 0.006025976963004682 
169.085466941603 0.006144622791406984 
170.103841319957 0.039453560102484034 
171.099918644329 1.0 
171.215214901208 0.010278716497357024 
171.255157746201 0.0010561792095641954 
172.103182908665 0.03530763024988554 
172.180369052055 0.0011736807321549934 
176.077327660007 0.0037382819890012155 
180.082529413726 0.0010657145337543451 
182.09823988017 0.0012618926426706469 
184.10793980998 0.00102545373707596 
185.115001013966 0.008369371745833304 
194.099240538334 0.0017259764779167042 
196.082736638395 0.0014022919905116791 
197.10980995389 0.0014237280282327893 
199.093725401727 0.0019700827844451353 
206.09994656571 0.0011824415882984735 
207.097959251892 0.0010163156832121254 
213.111762017767 0.0014245647213579386 
225.113729754706 0.0010111466526336848 
235.09778915307 0.0011906726949162947 
237.11533924913 0.00569212938065807 
238.111888425993 0.0015317010847738077 
239.126130874167 0.00216244525823993 
251.122538886503 0.0017720447813148127 
263.097059939395 0.005075396889783161 
265.108276212608 0.01764567735594267 
266.116795310733 0.0014244509765908252 
267.125534543257 0.21754389251654777 
267.268193410114 0.005960008343513211 
267.315315469747 0.0012950131115934856 
268.129087858076 0.012684978682056109 
291.166675500844 0.0018247069357711736 
301.148377079115 0.0015718248859165078 
309.178352481409 0.0017571642894289126 
319.158930283544 0.00911365393857147 
337.170489720939 0.12239207921587035 
337.328947695612 0.0029423379266704216 
337.385098080192 0.0018224638220550099 
338.1732268579 0.0066655955701096815 
END IONS

BEGIN IONS
TITLE=Antirhine.mgf
PEPMASS=297.1958311
CHARGE=1+
RETENTION_TIME=1097.671
PRECURSOR_MZ=297.1958311
SMILES=C=C[C@@H](CO)[C@](CC1)([H])C[C@@](N1CC2)([H])C3=C2C4=C(N3)C=CC=C4
INCHI=InChI=1S/C19H24N2O/c1-2-13(12-22)14-7-9-21-10-8-16-15-5-3-4-6-17(15)20-19(16)18(21)11-14/h2-6,13-14,18,20,22H,1,7-12H2/t13-,14-,18-/m0/s1
COMPOUND_NAME=Antirhine.mgf
IONMODE=positive
SKELETON=Antirhinan
103.052224572064 0.03504458278145695 
115.052194913116 0.1712078145695364 
116.056094209372 0.057114655629139074 
117.064322641316 0.20211509933774835 
118.066371251021 0.043788377483443705 
127.052081698048 0.10799516556291391 
128.053509555792 0.07319423841059602 
129.061463006219 0.02609337086092715 
130.063008867867 0.09478602649006622 
131.069265530625 0.03240831125827815 
136.109740532222 0.032667397350993374 
142.063057003808 0.02666954966887417 
143.07065183407 0.22555437086092714 
144.078033140475 1.0 
144.186488900636 0.06413890066225165 
145.08171383059 0.18412390728476818 
154.120245901956 0.061874715231788086 
158.093672664235 0.041682417218543044 
167.07093607252 0.0587045298013245 
168.077335559689 0.04582356291390729 
180.078191104016 0.04175352317880795 
181.084357196711 0.026352827814569536 
194.093373713303 0.04006106622516556 
196.109188953233 0.03357360927152318 
208.108985130473 0.024693119205298014 
END IONS

BEGIN IONS
TITLE=epi-antirhine.mgf
PEPMASS=297.1963628
CHARGE=1+
RETENTION_TIME=119.067
PRECURSOR_MZ=297.1963628
SMILES=OC[C@H](C=C)[C@]1([H])C[C@@]2([H])N(CC1)CCC3=C2NC4=CC=CC=C43
INCHI=InChI=1S/C19H24N2O/c1-2-13(12-22)14-7-9-21-10-8-16-15-5-3-4-6-17(15)20-19(16)18(21)11-14/h2-6,13-14,18,20,22H,1,7-12H2/t13-,14-,18+/m0/s1
COMPOUND_NAME=epi-antirhine.mgf
IONMODE=positive
SKELETON=Antirhinan
102.04503126797 0.02677300193088089 
103.053276560706 0.027111254073230708 
115.052951159058 0.2073775889329474 
115.058927215704 0.054908309926012644 
115.062360861073 0.03839655689317339 
116.04914672235 0.03248652666293102 
117.057138928343 0.08634756569813301 
117.069178762755 0.2480080875713373 
117.077409516612 0.059629251239368554 
117.085094535252 0.027331565441158102 
118.064645966533 0.054567193584193194 
120.081544216308 0.03902884900225924 
127.054163362051 0.17894840158039566 
127.063627228979 0.03950428826873864 
128.049124326445 0.04557789016464239 
128.061806304701 0.028989410492428164 
130.065283415988 0.07673239454213854 
131.072181892633 0.026037670022806523 
143.072530321485 0.41276442539340363 
143.081858937209 0.08953978292758662 
143.089454000568 0.032878948758489984 
143.097406429901 0.02588222697308545 
144.080927692501 1.0 
144.086501186686 0.22850137231737827 
144.100511532335 0.04503752904351799 
144.109432776866 0.04683018777013595 
154.062801162173 0.025754854862714727 
155.073400838524 0.024972794566408385 
156.081082280599 0.044188789112829835 
158.09812506509 0.029384875242252383 
167.072207352444 0.05413872361991984 
168.080628595984 0.05419258127723667 
180.081419202792 0.05421695820231777 
181.086658505699 0.04306604968895329 
182.086267653724 0.02829309772541518 
182.095562092046 0.030488805530671025 
193.08700681196 0.03354974248972993 
194.094885649086 0.04493325790643972 
194.099258650106 0.042413993711253005 
206.096255868491 0.0329755820303159 
969.655187968755 0.026452604190832424 
1156.56872818909 0.02903714715025537 
1229.57779055895 0.025931712487909687 
1692.46855689613 0.029171960825603267 
2398.03082693343 0.04202610436750267 
2639.77924974428 0.037013987286880365 
2926.66780794984 0.030697686868939228 
END IONS

BEGIN IONS
TITLE=N4_methylantirhine.mgf
PEPMASS=311.2113373
CHARGE=1+
RETENTION_TIME=833.916
PRECURSOR_MZ=311.2113373
SMILES=C=C[C@@H](CO)[C@](CC1)([H])C[C@@]([N@+]1(C)CC2)([H])C3=C2C4=C(N3)C=CC=C4
INCHI=InChI=1S/C20H27N2O/c1-3-14(13-23)15-8-10-22(2)11-9-17-16-6-4-5-7-18(16)21-20(17)19(22)12-15/h3-7,14-15,19,21,23H,1,8-13H2,2H3/q+1/t14-,15-,19-,22-/m0/s1
COMPOUND_NAME=N4_methylantirhine.mgf
IONMODE=positive
SKELETON=Antirhinan
103.054090723317 0.11605667991209333 
105.070076397545 0.09622357485951734 
106.06583522659 0.06647251373970164 
107.07567327112 0.02653892372622766 
107.083508957384 0.032997333486472866 
108.081027645871 0.17215134757073847 
109.089333417381 0.07015405522622938 
110.09666437335 0.06918184062288933 
111.082136524254 0.030457438638475276 
115.054078473957 0.16743549282929857 
116.058620973232 0.05503146931666626 
117.061628615172 0.20586482979226736 
118.065818156809 0.0763637918148063 
119.085121876314 0.04831487230562993 
120.081105393657 0.07910661082787918 
122.095689152829 0.03885560627826367 
127.053786690852 0.13902392405193487 
128.058589430535 0.2844572517853898 
129.068528266423 0.22631829994548688 
130.065185980485 0.742936224813404 
130.165411416514 0.03966381015726516 
131.072342311515 0.15893543454484987 
132.080351638345 0.13566691123278465 
134.095722350424 0.06414518570453899 
136.111853663907 0.03256598571002458 
141.067974225969 0.029123624744148414 
142.066144104841 0.05228687177078441 
143.073224342027 0.4313964182492037 
144.080327592798 1.0 
145.084728789974 0.12136682174901346 
146.095873044119 0.053977313635475345 
148.111523992763 0.04519249724863117 
150.126888659618 0.039004210194292926 
152.06197133157 0.04163643875161568 
153.069395561185 0.03367784728103047 
154.065524430146 0.16736876570680181 
154.121476865728 0.026488139114693512 
155.07231621018 0.12499166446671443 
156.080157743916 0.3799773204924693 
157.087221039011 0.18540291696523162 
158.096272551724 0.38659260541771095 
159.099362372132 0.06077274464897334 
165.069575672014 0.0373663743301574 
166.068187854831 0.05060354403732948 
166.123156081451 0.045092085143294026 
167.073185007266 0.47717670987715693 
168.07993611922 0.4560764537684324 
168.134986868684 0.0561476379370048 
169.086530385311 0.1252973364006953 
170.095828427714 0.12362862263562277 
171.098386759084 0.03179538815728573 
179.077730833971 0.041266375358706496 
180.081143484936 0.3717189283889835 
180.136769754123 0.051909222828304305 
181.087714679299 0.2176750590558605 
182.095478134467 0.25847310172693394 
183.099816253558 0.09163288168599767 
184.109169619541 0.03519939281318463 
185.108211569404 0.03698362549841775 
191.074010931734 0.03165130557165045 
192.079106084373 0.06246269366722323 
193.088174929855 0.13087239391373218 
194.095945556378 0.30622542196226593 
195.101653691682 0.09958763752558517 
196.110972254004 0.25713920212018254 
197.11507856673 0.12748349607265672 
198.12323655522 0.04388017574475526 
204.082009973021 0.06434403852944907 
205.087930634586 0.051667192369537124 
206.09618205168 0.08555278513952269 
207.101916809082 0.046662765322810135 
208.11196204017 0.14341769293009637 
209.117420759643 0.1057606463402509 
210.125053109127 0.053962442529819354 
211.125352806081 0.03282271584959869 
218.094663022923 0.03983536357496237 
220.110942293665 0.06193247660907934 
221.117157427891 0.03166221247767192 
222.126966526978 0.03441124564152321 
223.129825973769 0.025319193068950502 
224.139321945101 0.04386950454790125 
225.140381868194 0.043929310392117206 
236.142045458477 0.03923848367864012 
238.158715042619 0.03811693660366232 
239.154379145259 0.18823556259921212 
240.158239154771 0.06717169141470071 
250.158603823304 0.03370242531876451 
254.15332887806 0.0821695228903601 
268.169832884884 0.10947456569514491 
280.169647108473 0.1015361166443243 
281.184206828074 0.03326272058092453 
311.211337321196 0.3161016360787594 
312.216281943377 0.07838407651719563 
END IONS

BEGIN IONS
TITLE=arbophyllinineA.mgf
PEPMASS=327.1727251
CHARGE=1+
RETENTION_TIME=176.454
PRECURSOR_MZ=327.1727251
SMILES=[H][C@]([C@@]1([C@@H](O)C)C2)(C(CO1)=O)C[C@@](N2CC3)([H])C4=C3C5=CC=CC=C5N4
INCHI=InChI=1S/C19H22N2O3/c1-11(22)19-10-21-7-6-13-12-4-2-3-5-15(12)20-18(13)16(21)8-14(19)17(23)9-24-19/h2-5,11,14,16,20,22H,6-10H2,1H3/t11-,14+,16-,19-/m0/s1
COMPOUND_NAME=arbophyllinineA.mgf
IONMODE=positive
SKELETON=Arbophyllininan
115.054138278424 0.07297657717002846 
117.057461918485 0.04123558078169483 
117.069881390586 0.18373694840692956 
117.077140379501 0.03209985841056393 
127.054243520065 0.11436299897025863 
128.062179290263 0.028088518951783874 
129.070097370059 0.03833333333333333 
130.06502707535 0.05450152189714701 
143.073011662206 0.17649468661033377 
143.080928565989 0.036045471409534194 
144.080985267833 1.0 
144.088965935075 0.14915211967714578 
144.108442532522 0.050890423405415226 
154.065188190898 0.033141468290023623 
155.073152812827 0.030303754770125386 
156.081014054855 0.05112788857592828 
167.073224513101 0.027496318296080926 
168.08067910696 0.04544843910897086 
170.096491253184 0.030655206061845054 
END IONS

BEGIN IONS
TITLE=arboricinine.mgf
PEPMASS=295.1799715
CHARGE=1+
RETENTION_TIME=234.204
PRECURSOR_MZ=295.1799715
SMILES=CC([C@H]1CCN2CCC(C3=CC=CC=C3N4)=C4[C@]2([H])/C1=C/C)=O
INCHI=InChI=1S/C19H22N2O/c1-3-13-14(12(2)22)8-10-21-11-9-16-15-6-4-5-7-17(15)20-18(16)19(13)21/h3-7,14,19-20H,8-11H2,1-2H3/b13-3+/t14-,19+/m1/s1
COMPOUND_NAME=arboricinine.mgf
IONMODE=positive
SKELETON=Arboricininan
103.053976399326 0.04874172057563376 
105.069809250477 0.025726460874777958 
106.064945940276 0.036985733278413 
107.072891678264 0.03396762795641189 
108.080798939018 0.09684296952289184 
109.088386749829 0.07265454619008566 
110.096327706894 0.05534985969570702 
115.054053485815 0.3733532174367159 
115.060873430972 0.04322122015085929 
117.069672962263 0.3958445196738614 
117.076584481656 0.06656767521486968 
120.080775689401 0.029992148108374493 
127.054090362381 0.22181299625977807 
127.061505017487 0.04318379954322953 
128.049459926131 0.09047484636404092 
128.061594375711 0.05837743509777168 
129.069711100701 0.034959048799414506 
130.065021972089 0.2089829685666896 
130.072745175492 0.037857720781585016 
131.072742271914 0.04019949229337756 
132.08080068552 0.04166673409118491 
133.088081631119 0.0249727022643605 
142.065011710805 0.02662526801246005 
143.072875122372 0.4333522428459521 
143.081184432353 0.07456216969647933 
144.080675272723 1.0 
144.088663938638 0.17073938339665107 
144.104090514365 0.04786141687108554 
152.106890679528 0.041511613260318714 
154.065351962722 0.06747505599299765 
155.073043062116 0.04661688285419019 
156.080503875325 0.03776862847496772 
167.072801031013 0.35948681360308044 
167.081351978451 0.06398124004722168 
168.080579232362 0.1799890772280432 
180.080641886331 0.22471704687965458 
180.089302367038 0.04888202486861413 
181.088379176927 0.09519237134482492 
182.09631750459 0.05156237932543608 
191.07247824243 0.050142097172215704 
192.080661727368 0.08968735863836798 
193.088195904037 0.18857421048953876 
193.096188623363 0.03792447105465431 
194.096108183236 0.28264957209948915 
194.105298096564 0.04563682151013758 
195.10336014364 0.04594757345288313 
204.080384884927 0.0732387030219669 
205.088619502776 0.07493205447410714 
206.096239302283 0.2370076937504827 
206.105529036041 0.042588255629640796 
207.103990878046 0.11697654362305036 
208.099395059034 0.0424815149553711 
208.11154206956 0.14979083075587787 
208.120936512079 0.02760776583342221 
217.088685532061 0.03695579679230919 
218.096391804994 0.07411486931289511 
219.103987716438 0.02708686545866448 
220.111896023643 0.12271384911863895 
220.121444906643 0.02623549146957254 
221.106942735628 0.04393449187044195 
221.118393712224 0.027103203645337227 
222.127082859721 0.04050144993361749 
223.122741678952 0.10688594345902488 
231.104005077587 0.026665290593544163 
232.111642954574 0.10361278957298213 
234.127432556978 0.38461819947114656 
234.137001069074 0.10963245056250437 
246.1265828923 0.025095624823010636 
248.143044345483 0.0408704336745014 
END IONS

BEGIN IONS
TITLE=arboricine.mgf
PEPMASS=295.1802733
CHARGE=1+
RETENTION_TIME=209.664
PRECURSOR_MZ=295.1802733
SMILES=CC([C@H]1C[C@]2([H])C3=C(C4=CC=CC=C4N3)CCN2C/C1=C/C)=O
INCHI=InChI=1S/C19H22N2O/c1-3-13-11-21-9-8-15-14-6-4-5-7-17(14)20-19(15)18(21)10-16(13)12(2)22/h3-7,16,18,20H,8-11H2,1-2H3/b13-3-/t16-,18-/m1/s1
COMPOUND_NAME=arboricine.mgf
IONMODE=positive
SKELETON=Arboricinan
103.054192932306 0.052323840158171736 
106.065104125401 0.03500360417372679 
108.080735718329 0.09109453607263018 
110.096382155625 0.03812506201987257 
115.054235251491 0.22166407977487487 
115.06107885526 0.03312343312057787 
116.04946788845 0.035178055543593656 
117.057244381901 0.13476829375607324 
117.069806550452 0.3845848085481639 
117.076811905165 0.05567651745075388 
121.088496201581 0.03428094393777979 
123.080494972852 0.03708559023259559 
127.054250257086 0.27268626088975345 
127.061591671469 0.03521371345976338 
128.049438562798 0.0766637708456983 
128.06197146743 0.3953019361434031 
128.069031615574 0.040056739992098904 
129.069928834535 0.5089141045828239 
129.076883717666 0.06567431750055701 
142.065136414211 0.036182243874308885 
143.072982200094 0.4291847265415098 
143.080424661373 0.0504199190043868 
144.080924454615 1.0 
144.088836517475 0.05850007395577257 
144.09782948769 0.06589503335498959 
144.108665607225 0.05853933604566909 
154.065056316687 0.08593116870715949 
155.073011035808 0.07117188070465809 
156.080796982961 0.20198145301561682 
156.088986860963 0.030605360763747817 
167.072921887739 0.058550251543241665 
168.080702418771 0.05897204284566834 
169.075927170966 0.0283654276422338 
171.09174299231 0.0304593776855775 
180.080752828658 0.06813900127877956 
181.088587055482 0.0380541393701215 
191.072993258489 0.027575917004772486 
193.088777619323 0.046161564342458286 
194.096260929287 0.060698470145271605 
204.080680823037 0.04978754097992335 
205.088757626708 0.06885483698837115 
206.096290009546 0.08220665302385495 
208.112055885637 0.05164496361188759 
218.096207650657 0.043569704719876125 
220.112102315776 0.06815322138239253 
230.096438141043 0.0261510607504545 
232.111940336981 0.034385399445425326 
END IONS

BEGIN IONS
TITLE=Cadambine.mgf
PEPMASS=545.2114487
CHARGE=1+
RETENTION_TIME=960.558
PRECURSOR_MZ=545.2114487
SMILES=O=C(OC)C1=CO[C@@H](OC2C(O)C(O)C(O)C(CO)O2)[C@@]3([H])[C@]1([H])C[C@]45N(CCC6=C5NC7=C6C=CC=C7)C[C@H]3O4
INCHI=InChI=1S/C27H32N2O10/c1-35-24(34)15-11-36-25(38-26-22(33)21(32)20(31)18(10-30)37-26)19-14(15)8-27-23-13(6-7-29(27)9-17(19)39-27)12-4-2-3-5-16(12)28-23/h2-5,11,14,17-22,25-26,28,30-33H,6-10H2,1H3/t14-,17-,18?,19+,20?,21?,22?,25+,26?,27+/m1/s1
COMPOUND_NAME=Cadambine.mgf
IONMODE=positive
SKELETON=Cadambane
125.025560826289 0.054414692651908306 
130.068658367066 0.10253725840825681 
131.071981694077 0.029123787325961114 
139.041927871635 0.194147060287109 
140.045215003395 0.049175453888288714 
143.077573100799 0.03989767816162067 
144.083925874383 0.16161264311172252 
145.029025640411 0.027572426022268632 
145.085399890072 0.03396902574606441 
145.089769604382 0.034102660003948834 
155.075854075235 0.037268467612353105 
156.084369276363 0.061334967443537856 
157.089442704388 0.05665215016049488 
158.065297958181 0.14309141653383503 
159.064210369178 0.027739207996973634 
159.068562240801 0.05657849748542865 
168.083399461253 0.05804991901683712 
169.08382515528 0.02966049139951854 
170.09937721155 0.27237872189466894 
171.103134236972 0.1796508868552582 
177.059647931929 0.03323011792454092 
182.0992580511 0.04094353009539801 
183.096722074772 0.10530331364803064 
184.103380616529 0.05717957073305413 
192.08073713295 0.026462739986526887 
198.116430716634 0.14572413180538143 
199.121620968189 0.09362557901490015 
200.126347579519 0.025087682265623704 
206.089971401401 0.026178509685072612 
208.101244922792 0.055377581656016056 
209.110350187007 0.25537940090116845 
210.114015797218 0.18035597811983156 
218.09793956724 0.02655848043803143 
219.095525926433 0.031164097517961037 
220.100167026978 0.04358263947858294 
221.110543880403 0.04518287961894305 
222.110437385052 0.04068174606869149 
227.121461923468 0.8304337776037011 
228.124968937346 0.6680014040291999 
229.131030897936 0.03187381715623089 
234.110326452755 0.03481973688364375 
235.113739283691 0.0793556340684689 
235.125577653536 0.02655258661880982 
236.120547468104 0.09192244450900981 
237.105970680991 0.026530466738045284 
249.105469903189 0.03399264917944018 
253.135782440181 0.03793436484533473 
254.135967896892 0.03141598271075019 
263.119446030607 0.04146557319331567 
264.112852558687 0.04287703989551112 
264.126516523946 0.03164649177299887 
265.098819938559 0.052859799872331796 
266.101528783526 0.0341662533234666 
281.131605064233 0.0569639099216815 
282.134068453886 0.11232656306600595 
288.124478426094 0.0264468724232934 
290.1034029101 0.026053388424357126 
305.128998078223 0.04063345581133786 
306.123904229986 0.06383153361831273 
307.120332739976 0.03991038612408215 
334.127678669295 0.04453726161868943 
348.143903189271 0.04843440577835067 
351.137883043468 0.07084341275408569 
352.139305578897 0.09464518566199388 
365.153149365742 0.1006067182583189 
366.155199678352 0.13997946393266225 
367.160738079583 0.03343127828190488 
383.164116653483 0.5530136063485235 
384.166462908899 1.0 
385.169857467104 0.16976885420194798 
545.211448695366 0.11026166631084373 
546.217791400435 0.6807781232559994 
547.220697228763 0.151783315060621 
END IONS

BEGIN IONS
TITLE=acetoxyreserpiline.mgf
PEPMASS=471.2115555
CHARGE=1+
RETENTION_TIME=226.035
PRECURSOR_MZ=471.2115555
SMILES=C[C@@]1([H])[C@]2([H])CN3CCC4(OC(C)=O)C5=CC(OC)=C(OC)C=C5N=C4[C@@]3([H])C[C@]2([H])C(C(OC)=O)=CO1
INCHI=InChI=1S/C25H30N2O7/c1-13-16-11-27-7-6-25(34-14(2)28)18-9-21(30-3)22(31-4)10-19(18)26-23(25)20(27)8-15(16)17(12-33-13)24(29)32-5/h9-10,12-13,15-16,20H,6-8,11H2,1-5H3/t13-,15-,16-,20+,25?/m0/s1
COMPOUND_NAME=acetoxyreserpiline.mgf
IONMODE=positive
SKELETON=Ajmalicine
108.080441544947 0.08101175947774705 
124.038917130964 0.03580407403934132 
146.060252563565 0.041910063946754124 
160.075854046656 0.04371188561396572 
161.083713406702 0.10226132754779531 
162.054656735428 0.08534969640287891 
174.054378618997 0.10656786981863588 
175.062193495914 0.027628436324865394 
176.070518783441 0.07411636636446355 
177.07859036662 0.04154179349988721 
178.085627795417 0.04932711016262532 
187.063007511776 0.0336180564884116 
188.070320798632 0.0377244705109066 
189.078408489602 0.6643886110737968 
189.08736777928 0.1425118764895775 
189.108766886412 0.030335464891804186 
190.049644186539 0.17348030357177555 
190.057800369872 0.0367184306728138 
192.065432092691 0.06699803403227837 
192.101885649177 0.09249519068704108 
202.085701266525 0.1053088732140911 
204.065339364575 0.14012973528291095 
205.073265821267 0.34628574035539494 
205.082830907573 0.07336253982415276 
218.080971349696 0.08749536388144716 
220.096700025131 1.0 
220.105959335628 0.2078164747588162 
220.130420327035 0.04818307240117569 
229.096104908999 0.026037633032313004 
230.105265859283 0.12749786463970073 
230.117178016834 0.05752662335961664 
261.1231314614 0.07072312466364379 
273.123362151208 0.1102324944810124 
325.118162637016 0.11062889845823184 
397.174988110261 0.0443048610178255 
END IONS

BEGIN IONS
TITLE=Akuammigine.mgf
PEPMASS=353.1844795
CHARGE=1+
RETENTION_TIME=1134.674
PRECURSOR_MZ=353.1844795
SMILES=O=C(OC)C1=CO[C@@H](C)[C@@](C2)([H])[C@]1([H])C[C@](N2CC3)([H])C4=C3C5=C(N4)C=CC=C5
INCHI=InChI=1S/C21H24N2O3/c1-12-16-10-23-8-7-14-13-5-3-4-6-18(13)22-20(14)19(23)9-15(16)17(11-26-12)21(24)25-2/h3-6,11-12,15-16,19,22H,7-10H2,1-2H3/t12-,15-,16-,19+/m0/s1
COMPOUND_NAME=Akuammigine.mgf
IONMODE=positive
SKELETON=Ajmalicine
115.053788391644 0.10969591518601302 
116.057008272956 0.03102169184453263 
117.067346178144 0.14887236192003506 
118.068829003366 0.025760565307832776 
127.053610272373 0.08415660259563527 
128.056437726171 0.048662891891675254 
130.064879139601 0.03601599049547559 
143.072659621111 0.15822236656601854 
144.080154572152 1.0 
145.083495368225 0.13812298111237017 
158.09545160385 0.026546172911927297 
167.07220411153 0.03776757079781185 
168.079226504083 0.029929870883220754 
170.095262274029 0.026868972281736004 
222.115787452962 0.03451440269722349 
END IONS

BEGIN IONS
TITLE=alstonine-6-methylpropionate.mgf
PEPMASS=435.19
CHARGE=1+
IONMODE=positive
SMILES=O=C(C1=CO[C@@H](C)[C@@]2([H])C[N+](C=C(CCC(OC)=O)C3=C4NC5=C3C=CC=C5)=C4C[C@@]21[H])OC
INCHI=InChI=1S/C25H26N2O5/c1-14-18-12-27-11-15(8-9-22(28)30-2)23-16-6-4-5-7-20(16)26-24(23)21(27)10-17(18)19(13-32-14)25(29)31-3/h4-7,11,13-14,17-18H,8-10,12H2,1-3H3/p+1/t14-,17-,18+/m0/s1
SPECTRUM_ID=CCMSLIB00005464621
MS_LEVEL=2
INSTRUMENT_TYPE=LC-ESI-qTof
PEPTIDE_SEQUENCE=*..*
ORGANISM_NAME=MIADB
PRINCIPAL_INVESTIGATOR=Mehdi Beniddir
DATA_COLLECTOR=Mehdi Beniddir
SUBMIT_USER=mbeniddir
CONFIDENCE=3
PRECURSOR_MZ=435.19
COMPOUND_NAME=alstonine-6-methylpropionate.mgf
SKELETON=Ajmalicine
167.070374 0.030839774964029013 
168.078705 0.02808439779040946 
180.078842 0.030675225808201593 
191.071411 0.04849357559537582 
192.078171 0.08030538145027291 
193.08165 0.0303165755012615 
195.090118 0.1119593743608754 
205.075531 0.040895057877019296 
206.082718 0.16574641492250364 
207.08931 0.11809115094745175 
208.096832 0.06135380368410302 
218.082642 0.23876690101433867 
219.090363 1.0 
220.096466 0.4659747962671548 
221.101929 0.0883548336416365 
230.082993 0.029847005662887435 
231.089615 0.1201595340478076 
232.097336 0.16457383885244642 
233.105072 0.1985061612034468 
234.106796 0.06360654963996135 
243.090408 0.043816024504245626 
245.105057 0.04684257113748047 
246.081131 0.055476455551121545 
247.085449 0.6067293383105699 
248.089584 0.16593540130469572 
260.098145 0.07515266734533092 
261.101135 0.4729168576009232 
262.104095 0.11439735651367677 
273.109161 0.026125425157127763 
275.080139 0.13331177916259626 
276.085815 0.06665701978167943 
289.095734 0.208839690131271 
290.101929 0.16951520027815098 
291.10614 0.04420003033029195 
292.118317 0.1047220884271853 
293.126495 0.2627024793558799 
294.13028 0.0680774678990026 
305.12674 0.09065393681682353 
306.130249 0.027753732614228685 
307.1409 0.0342246829428274 
317.090515 0.0712424857523659 
319.138824 0.029162795321901802 
320.118805 0.030027772453765825 
321.121643 0.06085008400833302 
333.15625 0.03769190240879233 
347.101746 0.17201039850633587 
348.10434 0.047215201180662095 
349.116364 0.18782594532738836 
350.120026 0.05288139251055498 
363.13208 0.16343599054253824 
364.134583 0.04797507028202651 
375.167419 0.02637627360389214 
END IONS

BEGIN IONS
TITLE=alstonine.mgf
PEPMASS=349.1545458
CHARGE=1+
RETENTION_TIME=250.285
PRECURSOR_MZ=349.1545458
SMILES=C[C@H]1[C@@H]2CN3C=CC4=C5C=CC=CC5=NC4=C3C[C@@H]2C(=CO1)C(=O)OC
INCHI=InChI=1S/C21H20N2O3/c1-12-16-10-23-8-7-14-13-5-3-4-6-18(13)22-20(14)19(23)9-15(16)17(11-26-12)21(24)25-2/h3-8,11-12,15-16H,9-10H2,1-2H3/t12-,15-,16-/m0/s1
COMPOUND_NAME=alstonine.mgf
IONMODE=positive
SKELETON=Ajmalicine
115.054099308111 0.04777919598773199 
140.049647668283 0.02690304072779924 
154.065033609434 0.02546612267102779 
167.060356949804 0.042722571481905586 
180.080631557977 0.025666140210224613 
181.075785989219 0.040373362706718874 
182.083820344362 0.13674847192693323 
193.075921186723 0.04212474072034256 
195.091668307712 0.21563398894357308 
195.100771863471 0.03370212215865432 
205.076025335172 0.3583101371002994 
205.08571640957 0.04822774158939124 
206.083939642921 1.0 
206.093015869055 0.09926959849546682 
206.117197038195 0.049794924371892244 
207.091816980248 0.9974145675317149 
207.10095653426 0.09682769456010532 
207.125324629771 0.05181671236340004 
217.076163931536 0.13329853547706533 
219.091717137871 0.23521241196105896 
219.101320332376 0.09050669931672876 
232.099482747768 0.06007868400140785 
233.107271810162 0.16060174594119925 
234.078552883031 0.08053906603608596 
235.086707022729 0.9865703952160073 
235.122126625412 0.05029273794773555 
245.106993160483 0.05093894457462314 
247.123140203995 0.07661759114112336 
261.066000106612 0.5062938280037683 
261.075774409396 0.06559684860020544 
261.103186826698 0.025655653723064834 
261.138738672501 0.03321439109614762 
263.081375994685 0.236511187802549 
263.092007817 0.035424599211678745 
277.097308479408 0.27592068579942797 
277.108102367229 0.04075262679770455 
END IONS

BEGIN IONS
TITLE=ARICINE.mgf
PEPMASS=383.197113
CHARGE=1+
RETENTION_TIME=155.882
PRECURSOR_MZ=383.197113
SMILES=C[C@H]1[C@]2([H])CN3CCC(C4=C(N5)C=CC(OC)=C4)=C5[C@]3([H])C[C@]2([H])C(C(OC)=O)=CO1
INCHI=InChI=1S/C22H26N2O4/c1-12-17-10-24-7-6-14-16-8-13(26-2)4-5-19(16)23-21(14)20(24)9-15(17)18(11-28-12)22(25)27-3/h4-5,8,11-12,15,17,20,23H,6-7,9-10H2,1-3H3/t12-,15-,17-,20-/m0/s1
COMPOUND_NAME=ARICINE.mgf
IONMODE=positive
SKELETON=Ajmalicine
108.080829854431 0.03252332166801818 
115.054054178137 0.10855882452053549 
117.069635501447 0.0517136075506925 
130.065146510973 0.1798238444204016 
130.072651102953 0.026131112549857217 
131.073090718098 0.45197593374502504 
131.080491683088 0.06069609738924942 
142.064990732075 0.0796820789355382 
143.072904227644 0.41126043479289587 
143.080668243953 0.054638844854176395 
144.080748172711 0.17570771610050098 
144.088656040904 0.029112633027253247 
147.080351339148 0.03421934520800756 
157.088536521553 0.029701312007387796 
158.059866572192 0.04515176022937724 
159.067990898678 0.9947328628490184 
159.076390870385 0.10747772154240275 
159.097113927799 0.05126517046631865 
162.091035766004 0.03499456526804772 
172.075322235429 0.02811697651091643 
173.08332070256 0.07391464889695736 
174.09143020765 1.0 
174.099675277357 0.10931136998981168 
174.121894248993 0.052342258339051276 
185.083745142809 0.029582221113288353 
186.091014005279 0.028302728909404166 
188.10704170036 0.031649390958699626 
197.083773742166 0.03374939863041888 
200.106921501877 0.03867367445955606 
210.091306830813 0.038226492095619735 
222.113032427193 0.02949234728080572 
237.115033042899 0.033993226660586656 
238.122538997813 0.02575919548759512 
END IONS

BEGIN IONS
TITLE=cabucine.mgf
PEPMASS=383.1967392
CHARGE=1+
RETENTION_TIME=236.708
PRECURSOR_MZ=383.1967392
SMILES=C[C@H]1[C@@]2([H])CN3CCC(C4=C(N5)C=CC(OC)=C4)=C5[C@]3([H])C[C@]2([H])C(C(OC)=O)=CO1
INCHI=InChI=1S/C22H26N2O4/c1-12-17-10-24-7-6-14-16-8-13(26-2)4-5-19(16)23-21(14)20(24)9-15(17)18(11-28-12)22(25)27-3/h4-5,8,11-12,15,17,20,23H,6-7,9-10H2,1-3H3/t12-,15-,17+,20-/m0/s1
COMPOUND_NAME=cabucine.mgf
IONMODE=positive
SKELETON=Ajmalicine
108.080464604775 0.02615867748788578 
115.054389894082 0.0750159222261608 
117.069820050366 0.048639240230694776 
124.039368279302 0.032836420868317576 
130.06507954678 0.16854269598063096 
130.072316879632 0.03549599351128043 
131.072907696158 0.4628235484776029 
131.080610879004 0.08908206419619877 
142.065131391751 0.07430383645808396 
143.072956324791 0.42918957782411987 
143.080386751585 0.07561071272186529 
144.080737771587 0.08948122180287901 
147.080288916415 0.0301741824237099 
154.065227419367 0.030910445165120013 
157.08862686779 0.02643986941267111 
158.060242090861 0.04331141129386662 
159.067844163824 0.9898596600601415 
159.075568790352 0.15499247900813173 
159.092383867575 0.05785708083106498 
160.074939244112 0.049551736215496016 
172.075843805008 0.027649562689756907 
173.083486720281 0.05398599371979363 
174.0912914143 1.0 
174.0993663581 0.15775556921595604 
174.117131986224 0.055877841883122274 
175.094904413805 0.027287092848287644 
185.083406589513 0.04085103474014636 
186.091274244389 0.04535093431068836 
197.083492724654 0.02488938110907378 
198.091020004395 0.027942114624719794 
200.106874218581 0.04927026979232349 
212.106826988389 0.04608822642105044 
END IONS

BEGIN IONS
TITLE=didehydro-reserpiline-perchlorate.mgf
PEPMASS=411.1905343
CHARGE=1+
RETENTION_TIME=169.67
PRECURSOR_MZ=411.1905343
SMILES=CC1=C2CN3CCC4C5=CC(OC)=C(OC)C=C5N=C4[C@H]3C[C@@H]2C(C(OC)=O)=CO1
INCHI=InChI=1S/C23H26N2O5/c1-12-16-10-25-6-5-13-15-8-20(27-2)21(28-3)9-18(15)24-22(13)19(25)7-14(16)17(11-30-12)23(26)29-4/h8-9,11,13-14,19H,5-7,10H2,1-4H3/t13?,14-,19+/m0/s1
COMPOUND_NAME=didehydro-reserpiline-perchlorate.mgf
IONMODE=positive
SKELETON=Ajmalicine
146.059879352563 0.04400178190386434 
153.055382587711 0.030119464953503827 
158.059787707013 0.03172337344140544 
159.067819097847 0.03756919427048436 
160.075713577756 0.21364131506211526 
160.083867717707 0.03539769699285441 
167.073015523592 0.025003008943341367 
170.060123969943 0.04458769553942051 
171.067424403764 0.024857985491865495 
172.075752503832 0.08447641186477398 
173.08342715507 0.04336574460454562 
174.091235634408 0.06989444779110042 
182.059570091112 0.04275582036288313 
183.054921634886 0.05606031659263905 
183.067056696986 0.034898166692718786 
184.075656017378 0.10193590082278985 
184.09927883734 0.04229931414374004 
185.070618661248 0.10361457126899404 
185.082912603089 0.03815181711231022 
186.054532074335 0.029294444683128557 
186.09143334903 0.07677028705776531 
188.070379698802 0.08290194988669615 
190.086087273134 0.036083187609064676 
195.091029295466 0.024913325673096818 
196.075272054912 0.05629591304747915 
196.099718682576 0.12013688483105582 
197.083149939566 0.09218086080460516 
198.078601177802 0.17394751732465782 
199.050143520679 0.02964661141180231 
199.08643543251 0.04491869454212719 
200.070387831723 0.07963924978434636 
201.078269722262 0.055585375834543774 
202.086090788878 0.36093334223066453 
202.095425069208 0.18399330506297756 
204.111127248155 0.02499688745759675 
208.075253356363 0.02632522548792873 
211.086171984046 0.05865020172870271 
212.070265767597 0.09516512319299622 
212.094749865265 0.10969793865290141 
212.106731415542 0.034234066235755506 
213.065656819374 0.05450876828942409 
213.077955366177 0.059049332349751654 
213.102049981194 0.8232014974330285 
213.111396369646 0.13392521915010377 
213.136159782327 0.040236047415462405 
214.073541795038 0.0903629715014216 
214.085379302446 0.09445720642692015 
215.081429546479 0.034802764144852213 
216.101720385031 0.18534487670645175 
216.110868876893 0.038261144592905964 
217.109587065436 0.21140119864114595 
217.11890048819 0.040991071284381564 
222.078599720952 0.02883844731820117 
223.086367735239 0.07846349184294504 
224.094143043357 0.06975653915755071 
225.102115738398 0.2503846115172296 
225.111380132728 0.05280517312774405 
227.081426132776 0.06951685968086004 
228.101818004149 0.1869026104830672 
228.110952327882 0.03171048449929507 
229.097154343532 0.27373733311029064 
229.108020086216 0.06568406003504695 
230.116944071711 0.025870651086586573 
234.078152333856 0.039418894579727554 
235.086201557758 0.07863439982473476 
236.094300825283 0.036052656356122384 
237.102194483578 0.07570260731415471 
238.073388973601 0.04219114453501237 
238.109840604376 0.1619424275636883 
238.11994282148 0.02682863465882239 
239.081714926396 0.04467709543576051 
240.101633430218 0.03733847306561507 
241.097146253356 1.0 
241.106881307718 0.12529873855954038 
241.132032548776 0.07364903014519408 
242.116313017432 0.06119319305410949 
243.112019228145 0.04684015243687846 
244.120634159289 0.07528202559323413 
248.131081416533 0.03913862864702977 
249.065200973893 0.05167847238917415 
250.073602741507 0.0355147029921542 
250.109931722405 0.07944399602301484 
251.081088425269 0.13146081076016422 
251.091352568749 0.03299587462441531 
251.117417894892 0.024597226653113473 
252.089339188894 0.18742639515180767 
253.097042249268 0.6696713441643105 
253.106695467053 0.11116813122222823 
253.13334542018 0.054662003490069576 
255.112444020782 0.06487738898674937 
257.128270307945 0.6422343514378788 
257.138699096836 0.11884558346534597 
257.164545292651 0.036479149317632596 
263.082070798849 0.05417676376641093 
263.117757867493 0.03678494937205257 
264.08898568526 0.10101557550954741 
264.100802108446 0.02564500928278065 
264.125514903415 0.04855368092037407 
265.097126644589 0.2959632930241572 
265.107243260476 0.04007711426641352 
265.133674133298 0.32094166671998975 
265.144360192466 0.04532797177717792 
266.068213190298 0.03683476833269193 
267.076202637281 0.04033163278520289 
267.112264705255 0.10495666664533745 
268.12058519708 0.11423844177260434 
268.130211813212 0.02532418736438807 
269.128297718561 0.7158783539815405 
269.138353365799 0.10662150356974945 
269.16556261692 0.04226424281426242 
279.076171256367 0.3455190206354096 
279.086491826683 0.06200278925238956 
279.112571192294 0.2971959999792802 
279.12305633872 0.02621862814731665 
280.083608649688 0.12953475184825297 
280.09519158271 0.025489595454804455 
281.091989015761 0.9347910940152345 
281.128294845583 0.29226215559786867 
291.11299743839 0.0641354368818145 
293.091869718246 0.08038257305333554 
293.128446147889 0.7425715663842982 
293.139229629398 0.10496163330624524 
293.162356911207 0.03402683764168314 
294.100125067532 0.03191439182932481 
295.070903821893 0.0277221186739442 
295.107620955243 0.9487492393848289 
295.144775833321 0.09324397000136812 
296.126701237091 0.02646600747192999 
297.12319127004 0.09946207710634414 
307.071039641229 0.13331861617248392 
307.083793424522 0.03034277273138622 
307.107606281322 0.035941348305225995 
307.143764410789 0.09457863062150601 
309.086836163135 0.7409804066750704 
309.098887820091 0.10756894746095459 
309.123406840703 0.11177470372953577 
309.159697314818 0.34007458523049117 
309.170758937981 0.07210826833253958 
313.117863045396 0.04226521786425659 
323.102452645034 0.42525586683010946 
323.114116742458 0.06885492261607133 
325.117946987235 0.2965468299753526 
325.129924143698 0.056591109433212584 
327.133266515104 0.05191909644554667 
335.13818108839 0.10407500815842612 
339.133314815872 0.18597320501675413 
339.145683042421 0.036981147713065946 
351.17043854676 0.032875181717325085 
363.134251111856 0.05619018106373688 
367.16488079384 0.125667429338584 
367.177132940164 0.030480733164466863 
395.159981180819 0.3244347833240856 
411.190201759004 0.04249999162066411 
END IONS

BEGIN IONS
TITLE=iodomethylate-acetoxy-reserpiline.mgf
PEPMASS=485.2282028
CHARGE=1+
SMILES=C[C@H]1[C@]2([H])C[N+]3(C)CCC4(OC(C)=O)C5=CC(OC)=C(OC)C=C5N=C4[C@@]3([H])C[C@]2([H])C(C(OC)=O)=CO1
INCHI=InChI=1S/C26H33N2O7/c1-14-17-12-28(3)8-7-26(35-15(2)29)19-10-22(31-4)23(32-5)11-20(19)27-24(26)21(28)9-16(17)18(13-34-14)25(30)33-6/h10-11,13-14,16-17,21H,7-9,12H2,1-6H3/q+1/t14-,16-,17-,21+,26?,28?/m0/s1
RETENTION_TIME=126.507
PRECURSOR_MZ=485.2282028
COMPOUND_NAME=iodomethylate-acetoxy-reserpiline.mgf
IONMODE=positive
SKELETON=Ajmalicine
108.081091118193 0.12844649358264326 
116.070586569484 0.12266381769992404 
150.091933617162 0.20917038629183995 
152.071144281346 0.46394012438460375 
153.054526728504 0.17212950970228635 
162.054383751479 0.11274000136872067 
164.070550251203 0.5863054426924257 
164.079151316432 0.10591164823540643 
172.075337632127 0.14465223088797022 
178.085497036253 0.34798743142667166 
184.075353275942 0.19492369382225386 
185.083535160751 0.11168663562543353 
186.09175590672 0.11230454541998179 
190.086161135557 0.26284599273226217 
196.074580463437 0.11582642425102675 
196.09687769694 0.10918656592206571 
197.083218897911 0.2656691481065608 
198.090649000953 0.1463369401657842 
200.070295399847 0.16200439849373133 
204.101398763712 0.23169027709834594 
210.092073773192 0.14186058988481623 
210.112254056464 0.4317409704567556 
211.099566749835 0.2053337017050711 
212.069422051893 0.22394893658007398 
213.077935504068 0.1134724359088094 
214.086302277947 0.24721199202086538 
215.094332400178 0.17499026265073878 
216.101382890036 0.780526061878003 
216.11375073568 0.1176289533426778 
218.117067353147 0.15311966927652973 
223.099295884471 0.1269463926183711 
225.078222188002 0.13564752738919908 
226.087024414048 0.15431024504324564 
227.094496608101 0.13080563574963225 
228.102163735836 1.0 
228.113479600606 0.15609727041611643 
229.09690801722 0.12888959577960893 
230.117044018934 0.28478688089679927 
238.086743507117 0.13838349018703314 
240.101944910389 0.8901365087653041 
240.125130347557 0.1495850326169517 
241.097382295417 0.23324014204279023 
242.116804380589 0.47247688594078846 
243.112744743017 0.23031699401902858 
246.114184133096 0.1108587285936733 
254.118093272664 0.22852963069043508 
255.112743704882 0.21894360110410133 
256.120550089179 0.18748123289627205 
257.128050410402 0.49554532112975214 
257.138698723398 0.1057685662312952 
269.128541667921 0.18122917875914488 
271.144090776661 0.41816203625082055 
282.112154960036 0.3171897798809889 
282.123327101681 0.1172029601541754 
283.144383914391 0.27804990254201845 
293.128854676349 0.2136060973971495 
295.106834445216 0.20678682682388366 
295.144676529503 0.13619286119229088 
307.143561348002 0.22606876385090405 
309.159396052665 0.15477480742860475 
310.107155987517 0.1721779641040329 
310.128669610204 0.2492321645979552 
310.134087016099 0.10912294575726161 
321.159757332865 0.13479473836735278 
323.102035077746 0.14702176519343318 
323.176246684531 0.30931389074060456 
335.138924354993 0.11385141100738687 
339.133248951105 0.16553176910527068 
351.169622606653 0.1506574928585731 
353.150305322517 0.18706478695693685 
363.132947114373 0.12048784753465525 
367.165627656932 0.20464220205189815 
393.181278741066 0.10652123587028245 
395.159917054411 0.45997252419974194 
395.172824326184 0.12728316549607252 
409.17464549359 0.3293372181343661 
410.182720460575 0.1903604466760787 
411.191247685646 0.4477068436878742 
411.203716264261 0.12567960783617932 
425.206315083444 0.2776625630393034 
427.187058470601 0.22090763078675246 
END IONS

BEGIN IONS
TITLE=iodomethylate-de-reserpiline.mgf
PEPMASS=427.2218236
CHARGE=1+
RETENTION_TIME=234.15
PRECURSOR_MZ=427.2218236
SMILES=C[C@H]1[C@]2([H])C[N+]3(C)CCC(C4=CC(OC)=C(OC)C=C4N5)=C5[C@@]3([H])C[C@]2([H])C(C(OC)=O)=CO1
INCHI=InChI=1S/C24H31N2O5/c1-13-17-11-26(2)7-6-14-16-9-21(28-3)22(29-4)10-19(16)25-23(14)20(26)8-15(17)18(12-31-13)24(27)30-5/h9-10,12-13,15,17,20,25H,6-8,11H2,1-5H3/q+1/t13-,15-,17-,20+,26?/m0/s1
COMPOUND_NAME=iodomethylate-de-reserpiline.mgf
IONMODE=positive
SKELETON=Ajmalicine
105.069997003144 0.031004273568234906 
109.02852921562 0.05566044739260452 
120.080607839733 0.03913394139134929 
122.096101564769 0.036414862398686104 
131.072483476607 0.027089254016385837 
133.064649275537 0.030086548986387046 
144.0808520182 0.03465865834104132 
146.060089266973 0.08291240232806198 
146.095857744857 0.06212954010498829 
147.067608162726 0.049203378144435234 
150.091241301217 0.030725189506758586 
153.054625513346 0.026524350757877367 
156.080507954168 0.031639830893218666 
159.06768791178 0.11365875512743374 
160.075657532239 0.14954974371561963 
160.084521538012 0.02513846939803853 
170.059440746169 0.04739986849024204 
172.075625523708 0.15980351364538464 
173.082821201687 0.038729643676406175 
174.091292939711 0.295226634816959 
174.099613308956 0.052521834311674134 
175.062878152154 0.026475478618688555 
176.070332658881 0.05245292639145406 
178.085837506973 0.061852331903489 
184.07558116935 0.08958295042840451 
185.08324742033 0.08848733844405399 
186.091152559365 0.23655771711831988 
186.100118464969 0.03574931127002705 
188.070375052191 0.1026175231264599 
189.078629727489 0.04947123697998518 
190.086094470735 0.10918233458756525 
190.095448035671 0.03063147633173586 
191.094466481575 0.0380070484440839 
197.082925263181 0.08073786153958214 
198.091146799775 0.08318810385479247 
199.099187304227 0.11704647842212237 
200.070269233676 0.1172759719299506 
200.080344602656 0.03084795855546808 
201.078232607199 0.10162750808964616 
201.08591361689 0.03280114786665828 
202.086050529546 1.0 
202.094786133258 0.18784073549675864 
202.118344914555 0.11219608324427989 
204.101710290445 0.24337317540188802 
210.090500479505 0.059432023524082354 
210.111554466957 0.02867362730453888 
211.098406846072 0.0679053129742658 
212.07007936709 0.05173762506148929 
212.106211153019 0.027291767070076342 
214.085986884806 0.26862255003207924 
214.095544484272 0.057517668505608126 
214.108598107032 0.027718644950594038 
215.093631973124 0.14471720911947333 
215.103177736414 0.03325161368858928 
216.101745396932 0.5207119886410692 
216.112692657735 0.11463869240586028 
216.125365458538 0.028293067200688082 
216.135063311949 0.027544499290066825 
217.10931899774 0.5668619357078927 
217.118939096806 0.12925692995558802 
224.106285033356 0.04015917869262538 
225.11452050899 0.03786737669962393 
226.086161693475 0.07556118646147952 
227.093956066045 0.06912685702654242 
228.102373051841 0.07610362929015663 
229.109287471561 0.1482663761079298 
229.12067771196 0.03439692598435254 
230.11683002711 0.31693542352029075 
230.127770887208 0.0675718988193058 
235.098600623619 0.038341630022540256 
236.107166331649 0.03334644439721535 
238.08566135879 0.0309058507873124 
240.101245326866 0.06870311223130551 
241.109424121133 0.03813610361931218 
242.117230269098 0.4135153715749342 
242.127322002697 0.08496302660029316 
242.140394037301 0.03602678887694857 
243.112122527417 0.05758867180133446 
252.101362438133 0.041427808825921196 
254.11690555495 0.029741201169019977 
256.132659384848 0.05471119239837679 
257.127883731614 0.0374947490887611 
258.135315014283 0.03129023245696747 
266.116406379338 0.05351280723443361 
268.096678074996 0.027075554251766352 
284.127838672487 0.07173182785592198 
312.122466653765 0.10283963293012321 
312.134137474926 0.02707525491240832 
END IONS

BEGIN IONS
TITLE=Isoreserpiline.mgf
PEPMASS=413.2063179
CHARGE=1+
RETENTION_TIME=217.132
PRECURSOR_MZ=413.2063179
SMILES=C[C@H]1[C@@H]2CN3CCC4=C(NC5=CC(OC)=C(OC)C=C45)[C@@H]3C[C@@H]2C(C(OC)=O)=CO1
INCHI=InChI=1S/C23H28N2O5/c1-12-16-10-25-6-5-13-15-8-20(27-2)21(28-3)9-18(15)24-22(13)19(25)7-14(16)17(11-30-12)23(26)29-4/h8-9,11-12,14,16,19,24H,5-7,10H2,1-4H3/t12-,14-,16-,19-/m0/s1
COMPOUND_NAME=Isoreserpiline.mgf
IONMODE=positive
SKELETON=Ajmalicine
108.080762527414 0.0344309734253365 
115.054341958406 0.033750360399974685 
130.06504244794 0.05750990815540158 
132.080976535005 0.04211320757838932 
142.065261267414 0.03290834609814545 
143.073062762969 0.1646977211139162 
144.08082857721 0.19226371722635352 
146.060052523315 0.1426755349535234 
158.060204009311 0.3689145559396605 
158.068800910087 0.04065672838313713 
159.067600404253 0.06015086953086576 
160.075861786051 0.6536329765252934 
160.084252237674 0.06534720633658649 
162.091443336875 0.08331661463532074 
171.067909698003 0.0903800818464723 
172.075674215697 0.10838572663046604 
173.083648120544 1.0 
173.092588927693 0.08003870188996436 
173.114533958808 0.032531664524605035 
174.055084480536 0.22987723029155066 
174.064266549785 0.027290594687880178 
174.090702306121 0.04301982292933927 
184.076050341986 0.030573446515816442 
186.091280769383 0.04201169578064186 
188.07080813704 0.45057546103274815 
188.08014790061 0.050402469044899735 
189.07850864668 0.49850896790961396 
189.087993910207 0.0518093629948545 
190.086137781905 0.05163570915339409 
200.070590347701 0.02871679821696637 
202.08605785871 0.04343219909549431 
203.094103673859 0.03072605341241381 
204.102097840338 0.7438709253085789 
204.111241790655 0.07290495409838371 
214.086606381534 0.03624995398049104 
216.102288483586 0.038175641884247595 
222.11223777349 0.03868830955555289 
230.118014852109 0.03209778225264359 
END IONS

BEGIN IONS
TITLE=Raubasine.mgf
PEPMASS=353.1852805
CHARGE=1+
RETENTION_TIME=992.346
PRECURSOR_MZ=353.1852805
SMILES=O=C(OC)C1=CO[C@@H](C)[C@](C2)([H])[C@]1([H])C[C@@](N2CC3)([H])C4=C3C5=C(N4)C=CC=C5
INCHI=InChI=1S/C21H24N2O3/c1-12-16-10-23-8-7-14-13-5-3-4-6-18(13)22-20(14)19(23)9-15(16)17(11-26-12)21(24)25-2/h3-6,11-12,15-16,19,22H,7-10H2,1-2H3/t12-,15-,16+,19-/m0/s1
COMPOUND_NAME=Raubasine.mgf
IONMODE=positive
SKELETON=Ajmalicine
115.051156994949 0.1257349138589633 
116.054743901808 0.03379619399774804 
117.064484218079 0.17640850409137604 
118.066493938944 0.02849815294529709 
127.051011782432 0.1025014868114535 
128.054169242835 0.060149339338562834 
129.06368037009 0.027143526669753906 
130.062561179006 0.038971238131953634 
143.069859980939 0.1797001459778518 
144.077702375391 1.0 
144.183729852592 0.06394414642918428 
145.08063636167 0.16274688122198272 
154.062192662554 0.025494676274720445 
156.077165816371 0.030393188170387418 
167.069701264141 0.0407138340459842 
168.076846691605 0.03080038645344341 
170.092988485482 0.029396054836897372 
178.082693732417 0.0398434322895486 
END IONS

BEGIN IONS
TITLE=rauvanine.mgf
PEPMASS=413.2068481
CHARGE=1+
RETENTION_TIME=142.356
PRECURSOR_MZ=413.2068481
SMILES=C[C@@H]1[C@@]2([H])CN3CCC(C4=CC(OC)=C(OC)C=C4N5)=C5[C@@]3([H])C[C@]2([H])C(C(OC)=O)=CO1
INCHI=InChI=1S/C23H28N2O5/c1-12-16-10-25-6-5-13-15-8-20(27-2)21(28-3)9-18(15)24-22(13)19(25)7-14(16)17(11-30-12)23(26)29-4/h8-9,11-12,14,16,19,24H,5-7,10H2,1-4H3/t12-,14+,16-,19-/m1/s1
COMPOUND_NAME=rauvanine.mgf
IONMODE=positive
SKELETON=Ajmalicine
115.053639480082 0.03935410300088488 
130.064888359191 0.05434998802191945 
132.080003531076 0.05839487532630325 
134.095598202432 0.02523408528570153 
143.072777054304 0.15062184359897562 
143.081459702671 0.026348064457101233 
144.08068345836 0.034595551933156124 
146.059578553034 0.14797420160126165 
146.068703642886 0.024559299454665836 
148.075309481493 0.024786034353665425 
158.059867317822 0.27476611803227097 
158.067814451817 0.053216304687009656 
159.067609978019 0.08304002800484074 
160.075631139363 0.6640022877691864 
160.083896507398 0.1045521126063331 
171.067603484174 0.06901244040794426 
172.075529737447 0.09905828419079005 
173.083418997727 1.0 
173.092001051327 0.1514398890414265 
173.108940361791 0.03793928394946045 
174.054640557503 0.195579955676682 
174.063359121428 0.029440495459379278 
184.075470766287 0.043581605204232904 
186.091239931411 0.11969311362027098 
188.070510525262 0.3613266232509129 
188.079783333168 0.06390192824997148 
189.078124474812 0.5135379713993492 
189.086534549058 0.08219514459001814 
198.090905043813 0.0371535483848155 
199.099398837817 0.03231693205555354 
200.070063824952 0.037419585531893076 
201.079054147046 0.02985665198946636 
202.08559396464 0.1631655017136169 
202.094819037304 0.026012501403336004 
204.101473394099 0.6630982299844506 
204.110903402135 0.11935808096121665 
204.133828913861 0.026751314715889655 
214.085898515863 0.06877735179224792 
215.09401558338 0.04560537926315798 
216.102262268404 0.08843783729788646 
217.109518866975 0.04584570110666856 
230.117386995303 0.08633750076244238 
240.101124791604 0.028232203268469005 
242.117679024162 0.027587446617982323 
END IONS

BEGIN IONS
TITLE=Reserpiline.mgf
PEPMASS=413.2076897
CHARGE=1+
RETENTION_TIME=1038.182
PRECURSOR_MZ=413.2076897
SMILES=O=C(OC)C1=CO[C@@H](C)[C@@](C2)([H])[C@]1([H])C[C@](N2CC3)([H])C4=C3C5=C(N4)C=C(OC)C(OC)=C5
INCHI=InChI=1S/C23H28N2O5/c1-12-16-10-25-6-5-13-15-8-20(27-2)21(28-3)9-18(15)24-22(13)19(25)7-14(16)17(11-30-12)23(26)29-4/h8-9,11-12,14,16,19,24H,5-7,10H2,1-4H3/t12-,14-,16-,19+/m0/s1
COMPOUND_NAME=Reserpiline.mgf
IONMODE=positive
SKELETON=Ajmalicine
115.045991662555 0.06889946617447942 
117.051696978164 0.04163377183071603 
118.056762743158 0.027516341966495356 
130.056657914616 0.11138062500790886 
131.062268168537 0.036299380668393666 
132.071737458574 0.056774820717419565 
142.056288191848 0.05002313906760404 
143.063995602942 0.10447650571155344 
144.071264943031 0.10955760995124528 
146.05197047148 0.12356108442686518 
147.056368491877 0.02519344170129995 
158.05142273111 0.2335844133071332 
159.057413919192 0.0808720355329307 
160.066755013447 0.37979213705558984 
161.070456276266 0.06288588462643964 
162.081252185413 0.03538611059389671 
171.058415947612 0.03653694025601209 
172.065863588713 0.06397260732098407 
173.074489002494 0.38593004589850993 
174.046463508537 0.03558352480309196 
174.064050109658 0.059158235067618505 
174.074461082473 0.04354644173564701 
188.061482136929 0.16974422291599256 
189.068775640073 0.19728549813170107 
190.075460344526 0.08030142251033576 
204.092651301119 1.0 
204.220224789526 0.028726872230768814 
205.095923123633 0.17530419739070857 
222.103058565543 0.11667147224125372 
230.10709705293 0.025514821657444186 
END IONS

BEGIN IONS
TITLE=Serpentine.mgf
PEPMASS=349.1557293
CHARGE=1+
RETENTION_TIME=781.398
PRECURSOR_MZ=349.1557293
SMILES=C[C@@H]1OC=C(C(OC)=O)[C@@]([C@]1([H])C2)([H])CC3=[N+]2C=CC4=C3[N-]C5=C4C=CC=C5
INCHI=InChI=1S/C21H20N2O3/c1-12-16-10-23-8-7-14-13-5-3-4-6-18(13)22-20(14)19(23)9-15(16)17(11-26-12)21(24)25-2/h3-8,11-12,15-16H,9-10H2,1-2H3/t12-,15-,16+/m0/s1
COMPOUND_NAME=Serpentine.mgf
IONMODE=positive
SKELETON=Ajmalicine
235.086605512247 0.04526589008365978 
261.066343665615 0.032374011247459436 
263.081362813097 0.2131845958963546 
264.085054036624 0.034633848902551084 
317.128562010672 0.36123825201761817 
318.132191771739 0.08264610646816423 
349.15572928107 1.0 
349.316821163552 0.06475225063023222 
350.15798289784 0.2946177076475197 
351.161631618369 0.036493996125293436 
END IONS

BEGIN IONS
TITLE=tetrahydro_alstonine.mgf
PEPMASS=353.1860777
CHARGE=1+
RETENTION_TIME=239.13
PRECURSOR_MZ=353.1860777
SMILES=C[C@H]1[C@@H]2CN3CCC4=C([C@@H]3C[C@@H]2C(=CO1)C(=O)OC)NC5=CC=CC=C45
INCHI=InChI=1S/C21H24N2O3/c1-12-16-10-23-8-7-14-13-5-3-4-6-18(13)22-20(14)19(23)9-15(16)17(11-26-12)21(24)25-2/h3-6,11-12,15-16,19,22H,7-10H2,1-2H3/t12-,15-,16-,19-/m0/s1
COMPOUND_NAME=tetrahydro_alstonine.mgf
IONMODE=positive
SKELETON=Ajmalicine
115.054317271979 0.0711325627130998 
117.057322141548 0.028345862428115008 
117.069905426439 0.18905774051986535 
127.054285195762 0.09938195439310099 
130.065036611282 0.03223880311624645 
143.073056631391 0.1811909812370313 
144.080916649903 1.0 
144.08877701948 0.06366312496706439 
144.098217829106 0.02658290389471622 
144.108888559713 0.04757686673344652 
158.096274724553 0.02538148114466936 
167.07288448814 0.02900722654224869 
168.08065525396 0.032104260795168905 
170.096449210624 0.031629589659009597 
180.080865626459 0.02531308889296857 
END IONS

BEGIN IONS
TITLE=11_methoxyyohimbine.mgf
PEPMASS=385.2124388
CHARGE=1+
RETENTION_TIME=844.825
PRECURSOR_MZ=385.2124388
SMILES=[H][C@](N1CC2)(C[C@@]([C@@H](C(OC)=O)[C@@H](O)CC3)([H])[C@]3([H])C1)C4=C2C5=C(N4)C=C(OC)C=C5
INCHI=InChI=1S/C22H28N2O4/c1-27-13-4-5-14-15-7-8-24-11-12-3-6-19(25)20(22(26)28-2)16(12)10-18(24)21(15)23-17(14)9-13/h4-5,9,12,16,18-20,23,25H,3,6-8,10-11H2,1-2H3/t12-,16-,18-,19-,20+/m0/s1
COMPOUND_NAME=11_methoxyyohimbine.mgf
IONMODE=positive
SKELETON=Yohimbinoid
106.065543919041 0.034838026005437076 
115.054014269767 0.06405065956084766 
117.06740177039 0.09028921042420711 
130.064890741746 0.18573868734110746 
131.07235147619 0.3875250770211865 
132.075040276542 0.061169259335873576 
134.095951864972 0.03796992715882705 
142.065036186937 0.034077753147862315 
143.072746988851 0.19807517414683046 
144.07821878267 0.05151675738662861 
146.061650010642 0.024940310875501696 
147.076439652182 0.028757244642789385 
158.061099214525 0.03259594752889595 
159.067544012343 0.31879506672721464 
160.073466552225 0.08711435856070444 
161.081620258146 0.028169031668957616 
162.090680658722 0.03417619460870055 
172.075553378591 0.03900571370518114 
173.082632629557 0.03501097942062442 
174.091070796647 1.0 
174.207954712551 0.058437703110101435 
175.094350243304 0.1716963510868647 
187.098647867238 0.0401057365942743 
188.10565897771 0.0301550950264571 
212.127573374819 0.12397020501038578 
224.128103641284 0.04113184729670017 
385.212438821842 0.060553836493537815 
END IONS

BEGIN IONS
TITLE=Alloyohimbine.mgf
PEPMASS=355.2032878
CHARGE=1+
RETENTION_TIME=854.454
PRECURSOR_MZ=355.2032878
SMILES=[H][C@](N1CC2)(C[C@@]([C@@H](C(OC)=O)[C@@H](O)CC3)([H])[C@@]3([H])C1)C4=C2C5=C(N4)C=CC=C5
INCHI=InChI=1S/C21H26N2O3/c1-26-21(25)19-15-10-17-20-14(13-4-2-3-5-16(13)22-20)8-9-23(17)11-12(15)6-7-18(19)24/h2-5,12,15,17-19,22,24H,6-11H2,1H3/t12-,15+,17+,18+,19-/m1/s1
COMPOUND_NAME=Alloyohimbine.mgf
IONMODE=positive
SKELETON=Yohimbinoid
115.0543323851 0.11577363023849944 
116.058176061045 0.030588086241232406 
117.068363570542 0.1876677784529047 
118.069219755862 0.03718209128816821 
127.054512020942 0.0860187013050232 
128.056206707997 0.04419980511143506 
130.06572417842 0.05076386407869952 
134.096647002008 0.025363920928441475 
143.073211606625 0.17071186481931083 
144.080976108796 1.0 
144.187583713808 0.05680397530947904 
145.084242527468 0.1578486110495384 
180.102289828462 0.030230941210934274 
194.117944562076 0.029641351146252482 
212.129112441519 0.04417207565014286 
355.203287813833 0.03944472405708966 
END IONS

BEGIN IONS
TITLE=alphayohimbine.mgf
PEPMASS=355.2038054
CHARGE=1+
RETENTION_TIME=186.783
PRECURSOR_MZ=355.2038054
SMILES=COC([C@@H]1[C@H](CC[C@@]2([H])CN3CCC4=C([C@]3([H])C[C@]12[H])NC5=C4C=CC=C5)O)=O
INCHI=InChI=1S/C21H26N2O3/c1-26-21(25)19-15-10-17-20-14(13-4-2-3-5-16(13)22-20)8-9-23(17)11-12(15)6-7-18(19)24/h2-5,12,15,17-19,22,24H,6-11H2,1H3/t12-,15+,17+,18+,19+/m1/s1
COMPOUND_NAME=alphayohimbine.mgf
IONMODE=positive
SKELETON=Yohimbinoid
108.08120797272 0.03887092579716294 
115.054639196162 0.08192348335749276 
117.070273548634 0.177105896864774 
117.077516186701 0.02647254271112002 
127.054662726865 0.07267414626864499 
130.065505364171 0.04186368582529001 
134.096759414219 0.04464931901838081 
143.073574837342 0.1328356883865823 
144.081479519245 1.0 
144.097299662787 0.05365021075664188 
144.109043818039 0.05697768297329892 
192.102515123325 0.03708737070777305 
END IONS

BEGIN IONS
TITLE=Alpha_methylyohimbine.mgf
PEPMASS=369.2165805
CHARGE=1+
RETENTION_TIME=800.532
PRECURSOR_MZ=369.2165805
SMILES=[H][C@](N1CC2)(C[C@@]([C@H](C(OC)=O)[C@@H](O)CC3)([H])[C@@]3([H])C1)C4=C2C5=CC(C)=CC=C5N4
INCHI=InChI=1S/C22H28N2O3/c1-12-3-5-17-16(9-12)14-7-8-24-11-13-4-6-19(25)20(22(26)27-2)15(13)10-18(24)21(14)23-17/h3,5,9,13,15,18-20,23,25H,4,6-8,10-11H2,1-2H3/t13-,15+,18+,19+,20?/m1/s1
COMPOUND_NAME=Alpha_methylyohimbine.mgf
IONMODE=positive
SKELETON=Yohimbinoid
103.054227872245 0.0999290217098245 
105.069950912064 0.13376064382308975 
106.066576082918 0.13777787953876727 
107.074034474774 0.22783867601891694 
108.080753568381 0.2006332441003677 
109.083269106985 0.028999771505043476 
109.086856952193 0.024826327478597875 
115.054057312915 0.22928043714028984 
116.059272110466 0.06331039194127727 
117.067196710774 0.31428313095097354 
118.06771158649 0.11305243562072828 
119.071373364988 0.033258375461604206 
120.080961321837 0.1552168576009151 
121.088340498731 0.2963168388633941 
122.095155562355 0.16998305212254994 
127.054766627416 0.08697896491317426 
128.059108698844 0.18536440740136753 
129.069100710806 0.2391634280972164 
130.065813923066 0.6391620730146522 
130.166405792287 0.034841158623628625 
131.075015907325 0.17991076080409665 
132.080958352854 0.10624632317036986 
134.095853816668 0.15269775911398162 
135.097758613768 0.030282941239414586 
142.06774912996 0.03771038240897233 
143.073794735517 0.30864715565833417 
144.080676152269 1.0 
144.186758319042 0.03231135965713607 
145.084267538411 0.20428430379829643 
146.094652242829 0.08898817854007143 
148.110028323202 0.05891483119175773 
154.066449937356 0.11901655116534764 
155.072675119325 0.124657129066007 
156.080778960742 0.24267309193861383 
157.087361889027 0.14825299484928445 
158.096101235759 0.25747830349270195 
159.100059807703 0.05126868436902917 
160.111821770082 0.1853595711584227 
161.116942088622 0.057761188659734564 
164.107112761837 0.025804416728073716 
167.073805910265 0.1673772049880122 
168.081386993886 0.16965166434511428 
168.087827688191 0.026100595722331435 
169.082620994947 0.030589984257678764 
169.087596614314 0.051267399376942385 
170.095770006132 0.08826337291264717 
171.099555338615 0.03340507483093009 
172.107478892736 0.025849064362216373 
178.118380745474 0.025171452989615862 
180.08282428594 0.1465714074775325 
180.097657068235 0.03827830218434637 
181.087678686819 0.07434669834133222 
182.095865475495 0.0808356280176871 
183.096264500993 0.03797520759631249 
185.107633858237 0.03512282888905191 
188.107317400666 0.024970316682795268 
191.074612836224 0.04706855923416341 
192.080710732179 0.03167676047420414 
192.103817929474 0.024672081701198688 
193.089768070594 0.07058190516197677 
194.099527094846 0.1190639089646188 
194.114967817519 0.10139655276341053 
195.102608241478 0.03142403757597224 
195.112389947392 0.02948631623608529 
196.109129907385 0.033842883316644014 
198.112401423279 0.039746207053812196 
204.082282395137 0.08558589331014428 
205.08751810116 0.08585623228171138 
206.099406367109 0.10990995242725658 
206.116500109624 0.2943977615905118 
207.105648788915 0.03500269381068375 
207.120008019949 0.06308841539915826 
208.115258871645 0.07093406308423333 
208.127579838626 0.05734784175065453 
209.120842479136 0.05280121265871404 
212.127214261486 0.04639006004884839 
217.088690851484 0.08355705434955803 
218.09668853216 0.10836338267858703 
219.101700914149 0.05542173206653361 
220.117108749121 0.06485277962479166 
220.131639787195 0.2645579089861132 
221.116625557932 0.03763765185686029 
221.132460450834 0.06691376675104002 
224.127070544721 0.07221426565505859 
226.143027184489 0.1838303371211785 
227.146003594774 0.033376454552633515 
230.09720790674 0.08260209495764433 
231.102822678629 0.07325050663733458 
232.111325551325 0.07750941431929763 
233.117567825225 0.042970532561465845 
234.125443802805 0.05592937403129119 
235.127570080896 0.02482270613726239 
238.141097518334 0.0780990387791921 
240.159115835824 0.060651252680376674 
244.111311408829 0.02737586859624194 
246.126331626779 0.06059438593966332 
248.142380944576 0.0824721939394166 
249.144231730334 0.024951205345940898 
260.141524338149 0.041119466415213184 
280.133833355679 0.03569637926611532 
294.148711596984 0.042022371945865854 
298.142853009947 0.03864017931947753 
306.148161551232 0.03063285626639241 
308.163587272694 0.04627490139437996 
312.159280838415 0.045372743495486874 
320.167553220716 0.03795455426895398 
326.175068514238 0.06644168402184766 
327.17694722486 0.028235668483256086 
338.17619886597 0.1186242313995059 
339.177095210739 0.048071624057107847 
351.204225560416 0.033581048656342184 
369.216580510713 0.7517271461821017 
370.219842512352 0.3764741779671986 
371.224035285523 0.027035883053571085 
END IONS

BEGIN IONS
TITLE=betayohimbine.mgf
PEPMASS=355.2040588
CHARGE=1+
RETENTION_TIME=199.586
PRECURSOR_MZ=355.2040588
SMILES=COC([C@H]1[C@@H](CC[C@@]2([H])CN3CCC4=C([C@]3([H])C[C@]12[H])NC5=C4C=CC=C5)O)=O
INCHI=InChI=1S/C21H26N2O3/c1-26-21(25)19-15-10-17-20-14(13-4-2-3-5-16(13)22-20)8-9-23(17)11-12(15)6-7-18(19)24/h2-5,12,15,17-19,22,24H,6-11H2,1H3/t12-,15-,17-,18+,19+/m0/s1
COMPOUND_NAME=betayohimbine.mgf
IONMODE=positive
SKELETON=Yohimbinoid
115.053885797851 0.0674154430478413 
117.056481022192 0.02717159519425749 
117.069732759517 0.2206045678882581 
117.077291141798 0.043796438563568144 
127.053822174679 0.08155418978974581 
130.065444807806 0.04005838885037503 
134.09595191869 0.03998322383455548 
143.072582760112 0.16173079716606217 
143.080890057728 0.02976764331781888 
144.080728008044 1.0 
144.088542418414 0.1541971710224072 
144.10489892906 0.054269235902056956 
END IONS

BEGIN IONS
TITLE=corynanthicacid.mgf
PEPMASS=341.1860962
CHARGE=1+
RETENTION_TIME=174.253
PRECURSOR_MZ=341.1860962
SMILES=OC([C@@H]1[C@H](CCC2CN3CCC4=C([C@]3([H])C[C@]12[H])NC5=C4C=CC=C5)O)=O
INCHI=InChI=1S/C20H24N2O3/c23-17-6-5-11-10-22-8-7-13-12-3-1-2-4-15(12)21-19(13)16(22)9-14(11)18(17)20(24)25/h1-4,11,14,16-18,21,23H,5-10H2,(H,24,25)/t11?,14-,16-,17-,18-/m0/s1
COMPOUND_NAME=corynanthicacid.mgf
IONMODE=positive
SKELETON=Yohimbinoid
115.05418434541 0.06530696746924362 
117.057146674038 0.02943159325108079 
117.069891979408 0.19656348661279838 
117.076437421592 0.03046348212254849 
127.05432067993 0.08785748094036139 
130.065257106074 0.047769435236978464 
134.096371526136 0.028095846960505676 
143.073020008985 0.13973922689674412 
143.08052465196 0.024833260826839034 
144.080985157998 1.0 
144.097006531607 0.0735659503613915 
144.108563178064 0.05995874122837043 
145.084264793355 0.025236271797034814 
END IONS

BEGIN IONS
TITLE=Descarbomethoxydihydrogambirtannine.mgf
PEPMASS=275.1549694
CHARGE=1+
SMILES=C12=C(C=C3C4=C(C5=CC=CC=C5N4)CCN3C2)CCC=C1
INCHI=InChI=1S/C19H18N2/c1-2-6-14-12-21-10-9-16-15-7-3-4-8-17(15)20-19(16)18(21)11-13(14)5-1/h2-4,6-8,11,20H,1,5,9-10,12H2
RETENTION_TIME=141.854
PRECURSOR_MZ=275.1549694
COMPOUND_NAME=Descarbomethoxydihydrogambirtannine.mgf
IONMODE=positive
SKELETON=Yohimbinoid
103.054102242579 0.15840302106720752 
105.069652719466 0.03672501997534265 
115.054260629901 0.9098202761478139 
115.061270418505 0.0861111171368555 
116.049717245138 0.04848852638010637 
117.069834004497 0.4871629951806096 
117.077392493708 0.06768177561815099 
118.06513047846 0.06774309359306702 
127.054225499994 0.3730884229783326 
127.061455224622 0.04686558854048035 
128.049457561623 0.14289825048537372 
128.061556282864 0.0931319529558084 
129.056931540902 0.0275123051726195 
129.070048676772 0.03587602271946665 
130.065071794499 0.4184503472636492 
130.072823062294 0.060125347534807715 
132.080610803491 0.025549251421774388 
142.065126924369 0.06282952084485757 
143.072959677906 0.7561999486606578 
143.080898913408 0.08351059868180816 
143.097886228215 0.026958924910788853 
144.080756046068 1.0 
144.088325873974 0.10814813207949643 
144.105890663634 0.03898225177247271 
154.065014648872 0.08013977316687816 
167.072331669056 0.048022748390222386 
171.091393594988 0.045940070356591506 
202.077390999274 0.08324884034549208 
215.085574969429 0.045252810105896435 
216.080563225167 0.02908625371035211 
217.088546778476 0.11781312479437148 
229.088136035521 0.036515107143761 
230.096332334676 0.6781800564732764 
230.106005860309 0.10369411875296015 
230.131040758611 0.030761687835106712 
241.088250417426 0.08381686316619125 
242.09624752822 0.13418636181220647 
242.106852827267 0.027082768419796743 
243.104275991736 0.07696533871311792 
244.111819389096 0.05256873867913273 
254.096336184365 0.057762978549555116 
256.112004780031 0.03736752099670633 
END IONS

BEGIN IONS
TITLE=Methyle_reserpate.mgf
PEPMASS=415.2237482
CHARGE=1+
RETENTION_TIME=967.069
PRECURSOR_MZ=415.2237482
SMILES=[H][C@@](N1CC2)(C[C@@]([C@H](C(OC)=O)[C@@H](OC)[C@H](O)C3)([H])[C@@]3([H])C1)C4=C2C5=C(N4)C=C(OC)C=C5
INCHI=InChI=1S/C23H30N2O5/c1-28-13-4-5-14-15-6-7-25-11-12-8-19(26)22(29-2)20(23(27)30-3)16(12)10-18(25)21(15)24-17(14)9-13/h4-5,9,12,16,18-20,22,24,26H,6-8,10-11H2,1-3H3/t12-,16+,18-,19-,20+,22+/m1/s1
COMPOUND_NAME=Methyle_reserpate.mgf
IONMODE=positive
SKELETON=Yohimbinoid
105.068966009593 0.03607467361635435 
115.054273806246 0.058512114647409186 
117.063707294249 0.05304188323672056 
118.06555570859 0.03483139228975082 
130.065160640514 0.1694159704451293 
131.072735622027 0.3696861197340241 
132.077347964763 0.08329741439756595 
142.065255716266 0.03408228895428217 
143.072882944264 0.18423227902562267 
144.078876102601 0.0644400853079399 
146.06150324089 0.037705823355124034 
147.076285270874 0.04019110145294993 
158.061843877497 0.035784745540236876 
159.06789385864 0.32408704012636885 
160.074483324586 0.11400866541988132 
161.082210407176 0.046173887288959894 
162.0908108843 0.03932227643407426 
173.083335323253 0.04647325039630497 
174.091407498298 1.0 
174.208364471323 0.056258701600589656 
175.094523523506 0.17573710480289087 
178.086455225498 0.027667948604322166 
188.106921591851 0.05783943394300164 
210.110007593305 0.03910504633935373 
222.111664251512 0.0403921427842205 
242.139105376781 0.07113794778534799 
254.139183393099 0.2548638651766572 
255.14272871066 0.050184134563066064 
415.223748237435 0.1018590152789168 
416.227529201661 0.037442377313742274 
END IONS

BEGIN IONS
TITLE=o-monoacetylseredine.mgf
PEPMASS=457.2318319
CHARGE=1+
RETENTION_TIME=145.571
PRECURSOR_MZ=457.2318319
SMILES=COC([C@@H]1[C@H](CC[C@]2([H])CN3CCC4=C([C@]3([H])C[C@]12[H])NC5=C4C=C(OC)C(OC)=C5)OC(C)=O)=O
INCHI=InChI=1S/C25H32N2O6/c1-13(28)33-20-6-5-14-12-27-8-7-15-17-10-21(30-2)22(31-3)11-18(17)26-24(15)19(27)9-16(14)23(20)25(29)32-4/h10-11,14,16,19-20,23,26H,5-9,12H2,1-4H3/t14-,16+,19+,20+,23+/m1/s1
COMPOUND_NAME=o-monoacetylseredine.mgf
IONMODE=positive
SKELETON=Yohimbinoid
115.054187050518 0.030190051323407293 
117.069789267667 0.0505189503654662 
130.06517958506 0.02503605371808888 
132.08075611691 0.038146154988885746 
134.096542527461 0.06905312181453609 
143.07301034657 0.0562701567770242 
144.080729595646 0.032365727026836454 
146.060006574475 0.06214147379028532 
146.096361429086 0.05028495889403774 
147.104236258902 0.04608327850940998 
158.060025117195 0.11915635737302471 
159.067836099282 0.049666709339189735 
160.07581012795 0.3251215995761044 
162.091461276373 0.04079043660836961 
171.067851308484 0.03952460299150361 
172.075663329192 0.04268636311670068 
173.083812590016 0.6137049311409241 
173.114035692198 0.03707693445158163 
174.054989167057 0.09254965130615574 
174.063840421274 0.03993672372234016 
186.091253983872 0.029724259055531554 
188.070601446867 0.15386482987697306 
189.078532433886 0.347346579158329 
189.110090771364 0.02625247049948074 
191.094194396348 0.03379312976942461 
192.101887195687 0.03514304765334211 
194.117631515811 0.06506321808785565 
202.086090821396 0.04057581891880605 
204.102364026409 1.0 
204.135166968222 0.06393495201394912 
206.117570738815 0.12151242831529564 
217.109681219625 0.031949033261976664 
240.101698377347 0.02685675107839399 
254.117470194035 0.027238866407847544 
266.13835790687 0.035280238674039205 
END IONS

BEGIN IONS
TITLE=Pseudoyohimbine.mgf
PEPMASS=355.2030433
CHARGE=1+
RETENTION_TIME=961.973
PRECURSOR_MZ=355.2030433
SMILES=[H][C@@](N1CC2)(C[C@@]([C@@H](C(OC)=O)[C@@H](O)CC3)([H])[C@]3([H])C1)C4=C2C5=C(N4)C=CC=C5
INCHI=InChI=1S/C21H26N2O3/c1-26-21(25)19-15-10-17-20-14(13-4-2-3-5-16(13)22-20)8-9-23(17)11-12(15)6-7-18(19)24/h2-5,12,15,17-19,22,24H,6-11H2,1H3/t12-,15-,17+,18-,19+/m0/s1
COMPOUND_NAME=Pseudoyohimbine.mgf
IONMODE=positive
SKELETON=Yohimbinoid
115.054133765648 0.12350288670149037 
116.058007183859 0.032364815829524295 
117.068272494351 0.20154611388962787 
118.06933633385 0.03667404876630258 
127.054317189625 0.08261223468727559 
128.055632728298 0.04466603724108418 
130.065418706657 0.071637499119037 
134.096350985965 0.02825944566950331 
143.073186954621 0.1664150869121596 
144.080657609838 1.0 
144.187596004249 0.053292922263824136 
145.083933464107 0.15171598895478738 
158.096290511215 0.025998599348182615 
194.117461883835 0.025764145726202413 
212.128453329823 0.06599266911791317 
355.203043315042 0.048552458728073546 
END IONS

BEGIN IONS
TITLE=Rescinnamine.mgf
PEPMASS=635.2959813
CHARGE=1+
SMILES=COC1=CC(N2)=C(C(CCN3C4)=C2[C@@]3([H])C[C@@]5([H])[C@]4([H])C[C@@H](OC(/C([H])=C([H])/C6=CC(OC)=C(OC)C(OC)=C6)=O)[C@H](OC)[C@H]5C(OC)=O)C=C1
INCHI=InChI=1S/C35H42N2O9/c1-40-21-8-9-22-23-11-12-37-18-20-15-29(46-30(38)10-7-19-13-27(41-2)33(43-4)28(14-19)42-3)34(44-5)31(35(39)45-6)24(20)17-26(37)32(23)36-25(22)16-21/h7-10,13-14,16,20,24,26,29,31,34,36H,11-12,15,17-18H2,1-6H3/b10-7+/t20-,24+,26-,29-,31+,34+/m1/s1
RETENTION_TIME=221.434
PRECURSOR_MZ=635.2959813
COMPOUND_NAME=Rescinnamine.mgf
IONMODE=positive
SKELETON=Yohimbinoid
147.044261313161 0.03432648120477656 
159.068128424582 0.030918391409722936 
160.075728067371 0.02911693297469537 
162.067850776268 0.0711200001703406 
163.039362265425 0.03266305189692903 
174.091704156856 0.5157801946035029 
174.100675918475 0.06878383190788406 
178.062684487803 0.060525293185470584 
189.054872619051 0.02858682766693513 
190.062706061735 0.36534068920876256 
190.071452705271 0.04748476116915408 
191.034068679389 0.06569853757261435 
192.102263826924 0.0446451831667278 
193.086179112722 0.25686092061648397 
193.095074370161 0.037376163705845185 
200.107377100109 0.028344385067729023 
206.057599198834 0.12111387855459603 
221.081196747588 1.0 
221.090902065429 0.10252671020643686 
221.11570779245 0.045318507667190644 
236.128369551362 0.05078535006858871 
365.186162029826 0.07013921086517594 
397.21224843294 0.061979922164986594 
END IONS

BEGIN IONS
TITLE=Reserpine.mgf
PEPMASS=609.279091
CHARGE=1+
RETENTION_TIME=1349.304
PRECURSOR_MZ=609.279091
SMILES=[H][C@@](N1CC2)(C[C@@]([C@H](C(OC)=O)[C@@H](OC)[C@H](OC(C3=CC(OC)=C(OC)C(OC)=C3)=O)C4)([H])[C@@]4([H])C1)C5=C2C6=C(N5)C=C(OC)C=C6
INCHI=InChI=1S/C33H40N2O9/c1-38-19-7-8-20-21-9-10-35-16-18-13-27(44-32(36)17-11-25(39-2)30(41-4)26(12-17)40-3)31(42-5)28(33(37)43-6)22(18)15-24(35)29(21)34-23(20)14-19/h7-8,11-12,14,18,22,24,27-28,31,34H,9-10,13,15-16H2,1-6H3/t18-,22+,24-,27-,28+,31+/m1/s1
COMPOUND_NAME=Reserpine.mgf
IONMODE=positive
SKELETON=Yohimbinoid
109.026694751996 0.02954071866515104 
109.063115799618 0.0654112211182246 
111.042508919855 0.025791079411262345 
115.052889230423 0.07220838462308657 
117.061812951352 0.04725397115209056 
118.062769956165 0.03274181768922238 
120.079488192474 0.025127176992349235 
121.026990985471 0.030778210345903983 
121.061494256287 0.028094980770023616 
122.03533258261 0.06057165742960298 
124.051102401281 0.07865861343919145 
130.063890402176 0.16172790025149159 
131.071535786481 0.3157788876651334 
132.076612628706 0.05366939164953736 
137.021946805157 0.04617647405278378 
139.0738655185 0.11667442148103212 
142.063287988567 0.043394193901771044 
143.07129568116 0.20002877134291788 
144.078645769663 0.07878592000565414 
146.059229078738 0.033707851602301706 
147.07605355878 0.04816066601094312 
148.074576156629 0.039404017975463376 
151.03860581107 0.049392591894550225 
152.045501943491 0.191231307461702 
158.060952528431 0.03776045869236161 
159.066771917161 0.3585586646798636 
160.074094590041 0.107352035197041 
161.081670763304 0.035790254848722225 
167.069555025888 0.10900743284232596 
172.074847707781 0.036274567546396366 
173.082495437096 0.05204385494766972 
174.090044760425 1.0 
175.092319170978 0.040992743849646913 
184.075122602399 0.027154290375588235 
186.089161788773 0.04024857615718518 
188.104906109216 0.03873358973301842 
192.100271663276 0.05885141383026969 
195.064017751474 0.9261253806239582 
196.069517607499 0.04695421322009341 
198.08959459099 0.028286308727994487 
199.091240137233 0.03138208461189608 
200.104358711367 0.040485284503525 
204.098995097228 0.02726096815421675 
210.090073611087 0.026288063868258466 
236.125409571697 0.05458347812258889 
237.109401403538 0.024659714819155767 
251.116355462072 0.04500353383945767 
262.120543007729 0.025921266056883035 
365.182726441055 0.04050990358508013 
397.20870343139 0.044441918403646925 
END IONS

BEGIN IONS
TITLE=seredine.mgf
PEPMASS=415.221756
CHARGE=1+
RETENTION_TIME=123.717
PRECURSOR_MZ=415.221756
SMILES=COC([C@@H]1[C@H](CC[C@]2([H])CN3CCC4=C([C@]3([H])C[C@]12[H])NC5=CC(OC)=C(C=C45)OC)O)=O
INCHI=InChI=1S/C23H30N2O5/c1-28-19-9-15-13-6-7-25-11-12-4-5-18(26)21(23(27)30-3)14(12)8-17(25)22(13)24-16(15)10-20(19)29-2/h9-10,12,14,17-18,21,24,26H,4-8,11H2,1-3H3/t12-,14+,17+,18+,21+/m1/s1
COMPOUND_NAME=seredine.mgf
IONMODE=positive
SKELETON=Yohimbinoid
105.069943713766 0.03884176416722017 
106.065547449168 0.02853705938068644 
107.085844673609 0.031748819971467085 
108.080750523375 0.11846553059034834 
108.087284897959 0.02622910632243764 
115.054207010601 0.06027434435217318 
117.069753576465 0.0703577815070566 
130.06435491325 0.05400600527426575 
132.080788427816 0.04563853200913368 
134.096445426682 0.07941758075482525 
142.065026884317 0.030201823198122958 
143.07286453488 0.1184602248833727 
146.06008301137 0.10462785378257605 
146.09681673735 0.045898236540207436 
148.075107556416 0.0547237593488522 
158.059769342136 0.2509991432265773 
158.067831888117 0.04587285757517401 
159.067993610319 0.07813398285667124 
160.075735646868 0.5904748804250853 
160.084187026075 0.12703719497097582 
160.101273499185 0.02501824573676619 
171.067441322952 0.052594520187232506 
172.075223755177 0.05197943154262448 
173.083515818334 0.7901228369418691 
173.091498773258 0.13672610368530477 
173.113938024737 0.037502574250421514 
174.054928706609 0.1762165789587452 
174.063359140714 0.02460139402538093 
176.070409277797 0.08250565942077401 
178.086607939644 0.02540345971396344 
180.102604640281 0.028949155606560213 
188.070648126624 0.2768035473563824 
188.079725918114 0.050219164999626635 
189.078722777303 0.49344489728544316 
189.087378749614 0.07157932228436231 
189.101164664526 0.03312936492652578 
191.093941313201 0.05739682365009059 
192.101004864151 0.10194424684506943 
194.117012028866 0.05261593952280079 
202.086242095187 0.04833220013912743 
203.093530791135 0.02880822030867424 
204.101931728383 1.0 
204.110640806066 0.16032549529757156 
204.134305357655 0.0488673887668358 
214.086857904249 0.029690520077188216 
217.10993042613 0.034129638072181195 
224.128250292433 0.04578323042881903 
237.115587574167 0.028950295351021643 
240.102406014545 0.03524471099617597 
242.11696067998 0.025645046238253755 
248.10773015796 0.02944791171303593 
252.100877714415 0.024852098505362696 
254.117503706575 0.05290362674547934 
266.117144369788 0.0403750152293441 
268.133187273582 0.046422990610863725 
292.133475331286 0.026914082918374646 
398.178191551764 0.07390357565348624 
414.210909891927 0.03617195206785017 
END IONS

BEGIN IONS
TITLE=seredone.mgf
PEPMASS=355.2003217
CHARGE=1+
RETENTION_TIME=111.301
PRECURSOR_MZ=355.2003217
SMILES=[H]C1C(CC[C@]2([H])CN3CCC4=C([C@]3([H])C[C@]12[H])NC5=CC(OC)=C(C=C45)OC)=O
INCHI=InChI=1S/C21H26N2O3/c1-25-19-9-16-15-5-6-23-11-12-3-4-14(24)7-13(12)8-18(23)21(15)22-17(16)10-20(19)26-2/h9-10,12-13,18,22H,3-8,11H2,1-2H3/t12-,13+,18+/m1/s1
COMPOUND_NAME=seredone.mgf
IONMODE=positive
SKELETON=Yohimbinoid
115.054197062667 0.0735899840814781 
118.065179605379 0.0261954467038614 
120.081000305555 0.03311210725297313 
122.096421566897 0.04123429639746849 
130.065142112814 0.10768252208115356 
131.07304965778 0.03254445450084616 
132.080929477025 0.06094091697640813 
142.065307742261 0.05143410379108099 
143.073076729339 0.20120750875132334 
143.080950806428 0.03489311263126985 
144.080711148099 0.09025537491596411 
146.060018004484 0.25593829447720023 
152.107275645869 0.02557337588575756 
158.06019223636 0.5291940185767605 
158.067955020746 0.05419882407715074 
160.075925342955 1.0 
160.08436800366 0.08665169636578601 
160.092888904346 0.05759946419878061 
160.105163311744 0.05460222047925569 
164.106910536943 0.04748966938157315 
170.060082499229 0.028465514376898052 
171.068017047651 0.09660583160753888 
172.075780751741 0.08522399185914425 
173.083690578369 0.8321234661035941 
173.092138680785 0.08878551965087436 
173.11413311187 0.04133087729601496 
174.054977187603 0.28219045333013937 
174.063725340321 0.08153385052430666 
184.075521578944 0.027323386993949417 
188.070700039767 0.46548527826503566 
188.079287404695 0.05763370640759144 
188.102479453479 0.025886385413688387 
189.078660511738 0.42016445919526463 
189.086979777164 0.07888203534916428 
200.07048040226 0.026123919607600708 
202.086373026462 0.05173728498404285 
204.102033643121 0.5236960673137108 
204.111257099342 0.06490231552674079 
204.13466255784 0.02808189538594688 
210.091235891485 0.026615360504292595 
222.091554351985 0.038608343990757986 
224.106752265715 0.03532758782233075 
268.133261653669 0.02482428530859523 
END IONS

BEGIN IONS
TITLE=Yohimbine.mgf
PEPMASS=355.2013628
CHARGE=1+
RETENTION_TIME=911.787
PRECURSOR_MZ=355.2013628
SMILES=[H][C@](N1CC2)(C[C@@]([C@@H](C(OC)=O)[C@@H](O)CC3)([H])[C@]3([H])C1)C4=C2C5=C(N4)C=CC=C5
INCHI=InChI=1S/C21H26N2O3/c1-26-21(25)19-15-10-17-20-14(13-4-2-3-5-16(13)22-20)8-9-23(17)11-12(15)6-7-18(19)24/h2-5,12,15,17-19,22,24H,6-11H2,1H3/t12-,15-,17-,18-,19+/m0/s1
COMPOUND_NAME=Yohimbine.mgf
IONMODE=positive
SKELETON=Yohimbinoid
106.065597191896 0.028047761415962526 
115.054265501405 0.10823823605622426 
116.058134185733 0.03111710118863531 
117.068189712837 0.16280529195450638 
118.070336555161 0.03276157653541776 
127.054031482313 0.07622889951260628 
128.055545273897 0.0392940555916539 
130.065066176878 0.030751060990862302 
134.096005519108 0.03516401090839823 
143.07275716217 0.1449948990612425 
144.080508385244 1.0 
145.084172972688 0.1661630250348531 
212.127716519322 0.10825353447323953 
355.200661043741 0.0317990960406245 
END IONS

BEGIN IONS
TITLE=arboflorine.mgf
PEPMASS=308.1779683
CHARGE=1+
RETENTION_TIME=176.831
PRECURSOR_MZ=308.1779683
SMILES=C[C@H]1NC([C@@]2([H])[C@@]3([H])N(CCC4=C2NC5=C4C=CC=C5)CCC=C13)=O
INCHI=InChI=1S/C19H21N3O/c1-11-12-6-4-9-22-10-8-14-13-5-2-3-7-15(13)21-17(14)16(18(12)22)19(23)20-11/h2-3,5-7,11,16,18,21H,4,8-10H2,1H3,(H,20,23)/t11-,16-,18+/m1/s1
COMPOUND_NAME=arboflorine.mgf
IONMODE=positive
SKELETON=Arboflorinan
108.080749855568 0.22493094526673496 
108.087459087382 0.03328418149057329 
115.054017737173 0.09199720776792564 
116.049609020439 0.025946943694258786 
116.062152712384 0.06412814368347211 
117.056902130191 0.08101551856390353 
117.069664164951 0.03309016483622962 
118.06547862968 0.0452717489214091 
120.081110231697 0.04542555136381239 
127.054118551561 0.0362968329718805 
128.04938409836 0.03756603123358479 
128.062050077577 0.043927976982131536 
129.070037724223 0.06350449528651908 
130.064897024665 0.2195791329459084 
130.072437749067 0.032142823818994616 
136.075504690968 0.046763417289301674 
142.064847423611 0.1239163720751774 
143.072891530641 1.0 
143.081167176794 0.14868369205018758 
143.100567191025 0.04849977508956172 
144.080641506838 0.2791922418766933 
144.087985600098 0.04906071310399886 
148.076414712752 0.027426902569536386 
154.065039115739 0.049685356090079416 
156.080721906518 0.06648060330751127 
167.072754575443 0.06427630670298727 
168.080815320828 0.07961569076111803 
171.091137143988 0.04694933368167877 
180.080958142458 0.04757270523423548 
192.079758393854 0.02840343529033953 
193.08899480566 0.046009549491113855 
194.096446963287 0.04432344407553505 
204.080613973797 0.08722379516549705 
205.088199472768 0.0408262021121997 
206.096055711464 0.058564381343517644 
217.088463712784 0.02969824678545205 
218.096200680157 0.028331260930867748 
219.090566525553 0.0283355776527512 
219.104054038538 0.03198463288023475 
220.111540281829 0.029710540727348154 
221.107068947635 0.036934118518726626 
231.09157578467 0.029311454149800093 
232.099345975172 0.03313462399558033 
233.10691726839 0.03721595636768258 
236.093674600704 0.02693202783085956 
245.106804815903 0.031202086053286806 
246.116040325036 0.030848494238201633 
249.102093214559 0.08911927697266755 
250.110249141947 0.038984223047993226 
END IONS

BEGIN IONS
TITLE=andranginine.mgf
PEPMASS=335.1753728
CHARGE=1+
RETENTION_TIME=136.13
PRECURSOR_MZ=335.1753728
SMILES=O=C([C@@]12[C@](C3=CCC2)([H])N(CC=C3)CCC4=C1NC5=CC=CC=C54)OC
INCHI=InChI=1S/C21H22N2O2/c1-25-20(24)21-11-4-6-14-7-5-12-23(19(14)21)13-10-16-15-8-2-3-9-17(15)22-18(16)21/h2-3,5-9,19,22H,4,10-13H2,1H3/t19-,21-/m1/s1
COMPOUND_NAME=andranginine.mgf
IONMODE=positive
SKELETON=Andranginan
103.054336849622 0.0368187618309639 
104.050238594492 0.056106584321641784 
105.057856493341 0.19803046754894266 
105.064649891976 0.035378164950823715 
106.065690461075 0.11948800095267945 
115.05498425138 0.4325368150238873 
115.062466479587 0.050604976261576666 
117.070411339937 0.055926269887803796 
118.065798474083 0.05917955444042073 
120.081039785039 0.02563635596801577 
127.055609978094 0.04602316698105639 
128.050208049725 0.12542701458211525 
128.062593443288 0.14323363553891308 
128.070006611248 0.02656631004588905 
129.070445201174 0.12062456738677213 
130.065825563186 0.31770569647731883 
130.073216102008 0.05740009477175801 
132.081099219773 0.10925167525208376 
132.087314095844 0.027222831889290706 
140.049704411997 0.04060673772618901 
141.070147908453 0.13064169411546772 
142.065663327046 0.6730332999509602 
142.073164536456 0.1422906151977182 
142.084289380172 0.03338180531102255 
142.091830295648 0.030355939898496637 
143.086162094425 0.07405157535305787 
144.081589212049 0.24376106600861214 
144.089602886615 0.053332434683155516 
153.070955536717 0.030394758278263444 
154.065779544978 0.2038960620101702 
154.074160908228 0.05024170106208874 
155.073905436248 0.2579353153807286 
155.081727730398 0.0499717255985465 
156.081503619098 0.10101901968291983 
157.077117500875 0.17457272078470354 
157.085874444828 0.04018734375271352 
158.084210237313 0.07423109588735227 
167.073631713255 0.49549453739225496 
167.082108622633 0.12423092222182709 
167.094450640925 0.03348901482855491 
168.081442509518 1.0 
168.089382499681 0.19833479570731902 
168.105879228292 0.046216084570148884 
170.060078610206 0.04827152356765223 
170.096909034196 0.4480486197312154 
170.106585864588 0.09154215813321137 
170.126670852266 0.024603773834559604 
180.081619638267 0.08839184896722765 
181.088613440523 0.03327299145482918 
183.068017344788 0.026409878756654077 
196.077446258928 0.07053921491604925 
198.091577878377 0.03045142285818721 
204.081845869534 0.043519803245229784 
205.08834617958 0.0356888608451226 
208.112406822353 0.02559325383862834 
217.08888163795 0.07343653476080882 
217.098018244955 0.028393122514412172 
218.096909026267 0.06114195833515957 
219.091671303718 0.039942045333317897 
230.097286366259 0.11044078791221786 
231.104750652999 0.06995526872259084 
232.100614291598 0.05406222683860105 
232.110407139864 0.035147983701903945 
233.108238022049 0.031351853796783215 
242.096330615126 0.03392448526778811 
243.105161781576 0.04195848401574236 
245.107763922677 0.17016806687942074 
245.118827554774 0.03262578139149088 
246.127746959955 0.047181697969188426 
247.123339943697 0.053974699413920205 
259.123167273428 0.15320023386957388 
259.130863557666 0.09019211541976196 
273.137691860084 0.025645155021290562 
275.155425674637 0.02859761780518201 
END IONS

BEGIN IONS
TITLE=criofolinine.mgf
PEPMASS=399.1553446
CHARGE=1+
RETENTION_TIME=261.480015625
PRECURSOR_MZ=399.1553446
SMILES=COC([C@@H]1[C@]2([H])[C@@](C(N3CCC4=C(C([C@@]23O)=O)NC5=C4C=CC=C5)=O)([H])CC[C@H]1O)=O
INCHI=InChI=1S/C21H22N2O6/c1-29-20(27)15-14(24)7-6-12-16(15)21(28)18(25)17-11(8-9-23(21)19(12)26)10-4-2-3-5-13(10)22-17/h2-5,12,14-16,22,24,28H,6-9H2,1H3/t12-,14-,15+,16+,21+/m1/s1
COMPOUND_NAME=criofolinine.mgf
IONMODE=positive
SKELETON=Criofolinan
105.033498603791 0.027399548555071086 
107.048601430392 0.029504598157108444 
115.054152083504 0.04271313124149005 
117.069897057811 0.10121561897190304 
127.054460944411 0.05398300772503589 
130.065079796022 0.03844993736345935 
143.073191188602 0.07570168182616649 
144.080993567328 1.0 
144.088461488678 0.1338813790100375 
144.10815781922 0.05424922333163718 
158.060071491668 0.04494120247313309 
170.060359249585 0.04683291671855451 
249.102330243337 0.03598552555727553 
END IONS

BEGIN IONS
TITLE=Isomalindine.mgf
PEPMASS=304.1801987
CHARGE=1+
RETENTION_TIME=592.553
PRECURSOR_MZ=304.1801987
SMILES=C[N@+]1(CC2)[C@](CC(C=CN=C3)=C3[C@H]1C)([H])C4=C2C5=CC=CC=C5N4
INCHI=InChI=1S/C20H22N3/c1-13-17-12-21-9-7-14(17)11-19-20-16(8-10-23(13,19)2)15-5-3-4-6-18(15)22-20/h3-7,9,12-13,19,22H,8,10-11H2,1-2H3/q+1/t13-,19+,23-/m1/s1
COMPOUND_NAME=Isomalindine.mgf
IONMODE=positive
SKELETON=Malindane
102.045041257645 0.03486303981062663 
103.05390855977 0.17504685683051627 
115.053238794703 0.13365274848210454 
116.055865056814 0.04583885291288644 
117.059030247652 0.22329570076284253 
118.063928361159 0.09275919071806732 
127.053458885659 0.05534646405728843 
128.051583659784 0.13914498048363164 
129.062249409719 0.06337776468592764 
130.064603420429 0.872708401901603 
131.070351300222 0.23160109723410444 
132.079274038943 0.10050326229882135 
142.064192382721 0.0854250133857669 
143.071990689634 0.23591288271728675 
144.079827109766 0.5142500062475774 
145.082888804037 0.07851136447622173 
154.064202169903 0.08984585232641172 
155.066883327097 0.04484561039894637 
156.079097180128 0.06891476656126427 
158.086589406589 0.06295399284001045 
159.091166873164 0.06663208787656276 
167.071249707143 0.05436705660411468 
168.077002612663 0.06290683027698302 
169.076229341631 0.09942798776431905 
170.082663150281 0.05333554169686329 
173.106292374287 0.03414040513013837 
183.090365343211 0.1259857214941653 
184.095463251821 0.03600203963463104 
185.106193984873 1.0 
186.109852698208 0.14373809304796173 
203.071798914601 0.03521175033723625 
204.079463814748 0.09448102305010452 
205.083819609145 0.029022203624232943 
216.078850293678 0.03731241981167941 
217.087067104279 0.11059062735779583 
218.091182912247 0.10133586497576205 
219.093485780047 0.051364444319197504 
229.077591678137 0.04382509654500994 
230.085130582437 0.0706040051490672 
231.090733763351 0.35071863091386374 
232.096530433459 0.11793145104903471 
233.104907329983 0.042426803649010573 
242.084226306374 0.025114761350518867 
243.090815998678 0.13017159835361714 
244.098675047264 0.1312835076185883 
245.106131804789 0.5945588120351204 
246.112488304631 0.3959046199638544 
247.117568741622 0.07825656965995632 
256.097968665236 0.04594090376657137 
257.105430635279 0.06705697631078163 
258.112626366456 0.04605546572632208 
259.121182986531 0.053346441725522394 
261.137221585464 0.28425110688461763 
262.140635257186 0.07065770772929007 
273.136437833321 0.0489305476759278 
304.1780798875 0.03463979658951396 
END IONS

BEGIN IONS
TITLE=Malindine.mgf
PEPMASS=304.1819195
CHARGE=1+
RETENTION_TIME=546.822
PRECURSOR_MZ=304.1819195
SMILES=C[N@+]1(CC2)[C@](CC(C=CN=C3)=C3[C@@H]1C)([H])C4=C2C5=CC=CC=C5N4
INCHI=InChI=1S/C20H22N3/c1-13-17-12-21-9-7-14(17)11-19-20-16(8-10-23(13,19)2)15-5-3-4-6-18(15)22-20/h3-7,9,12-13,19,22H,8,10-11H2,1-2H3/q+1/t13-,19-,23+/m0/s1
COMPOUND_NAME=Malindine.mgf
IONMODE=positive
SKELETON=Malindane
102.046133671791 0.032038057958888935 
103.054649544687 0.1638023387709639 
115.054806859016 0.13352003133908086 
116.056959372299 0.04774986626681381 
117.060513370366 0.21867283492875578 
118.065130137267 0.0953244525633302 
127.054478763149 0.05951494998941385 
128.052889210209 0.14764593793757344 
129.06326822666 0.06584096439270815 
130.065922599944 0.8491182815055441 
131.071520640447 0.21610960700342538 
132.080483397908 0.09848858486252841 
142.065277267141 0.08675913604781868 
143.073278417831 0.2262223417780428 
144.081368264714 0.5257560399839214 
145.084479067438 0.0793268439070342 
154.06539425484 0.09373837186110569 
155.068986998188 0.042360720594296984 
156.080502382699 0.07479668975844155 
157.084296142642 0.025131283541970743 
158.088780125879 0.06330453424541241 
159.092535834029 0.06852079333696773 
167.072955802537 0.05263001780722579 
168.078305028159 0.06174540474361584 
169.077595971165 0.1052580411233383 
170.083752407014 0.058291355261825537 
173.10811359071 0.032885159247330195 
183.092422496114 0.1154775067429142 
184.097321147639 0.031168510974303794 
185.107838174751 1.0 
185.227162084853 0.03743907852464935 
186.111470381984 0.14794009980638093 
203.074203725445 0.03589180857385703 
204.081252252709 0.09746106395361326 
216.080351314973 0.04083929208862087 
217.088728141829 0.11579084641088767 
218.093491106743 0.10343512738661319 
219.095765381317 0.05361319964446917 
229.08024353124 0.044135986449734224 
230.087214282568 0.07513733861242741 
231.092808763863 0.3327214677818088 
232.098419170567 0.10536441398271237 
233.107544197651 0.04130017295817808 
242.086181585921 0.03014038660397487 
243.092836109145 0.14238145307371536 
244.100979840986 0.1301751674605423 
245.108357845656 0.6070024025946794 
246.114709644901 0.38519458562145786 
247.119859381554 0.06923584397147162 
255.091631482158 0.0331239765447845 
256.100279935621 0.06352858208046902 
257.107522989836 0.08023367253319805 
258.113910856457 0.0538742734171156 
259.123744734075 0.050308803479210754 
261.139668399875 0.2716416093804497 
262.142962770191 0.06230094722985641 
273.138791393005 0.05961994204724796 
304.182753072993 0.024618218602362907 
END IONS

BEGIN IONS
TITLE=Angustine.mgf
PEPMASS=314.1284375
CHARGE=1+
RETENTION_TIME=1730.499
PRECURSOR_MZ=314.1284375
SMILES=C=CC1=CN=CC(C2=O)=C1C=C(N2CC3)C4=C3C5=CC=CC=C5N4
INCHI=InChI=1S/C20H15N3O/c1-2-12-10-21-11-16-15(12)9-18-19-14(7-8-23(18)20(16)24)13-5-3-4-6-17(13)22-19/h2-6,9-11,22H,1,7-8H2
COMPOUND_NAME=Angustine.mgf
IONMODE=positive
SKELETON=Angustinan
115.051596332217 0.11560755113599039 
116.049518227108 0.25716028143658354 
117.055550200086 0.13850063825669814 
118.061993356169 0.038202610549788456 
128.049911393461 0.02912972500812246 
130.064153350132 0.0344575173145993 
140.049204222351 0.03360607045146675 
142.053354269382 0.14295618487606812 
143.060219583691 0.11130823981408 
144.066664939499 0.026749311588220567 
169.06853084485 0.0386464697036678 
171.055381722266 0.07384129334419878 
216.076752801404 0.046428771795267845 
217.081532205863 0.035725198090378565 
229.079004107528 0.02577096793092979 
230.085507404295 0.026281511150406656 
241.080527069334 0.041763674583180206 
242.083483887442 0.10673711458261208 
243.089106490153 0.12893965944255956 
244.093071106436 0.06447579506900096 
255.08959534146 0.06317603279520925 
256.095250156228 0.070823129215468 
257.100841972402 0.05299074305862552 
268.090273195017 0.07572775466797335 
269.097284279869 0.09162055062289948 
270.102102711658 0.23460887025901328 
271.105054409371 0.10754785149834976 
272.092402210902 0.030590995520663005 
282.101238622085 0.032521398021848086 
283.105682067145 0.024697125448066855 
284.112160400543 0.02789598102451296 
288.11281741755 0.029698581276975 
297.092104181654 0.046207041950952765 
298.097117329021 0.23077915253003534 
299.103725384436 0.35303522573337376 
300.107593721775 0.1113215553223862 
312.11248353704 0.16270983021839208 
313.116749215927 0.07957370844007931 
314.12843751798 1.0 
315.131588088665 0.3966648202495148 
316.133659415593 0.0629329892605987 
END IONS

BEGIN IONS
TITLE=angustoline.mgf
PEPMASS=332.1400206
CHARGE=1+
RETENTION_TIME=260.903015625
PRECURSOR_MZ=332.1400206
SMILES=CC(O)c1cncc2c1cc1-c3[nH]c4ccccc4c3CCn1c2=O
INCHI=InChI=1S/C20H17N3O2/c1-11(24)15-9-21-10-16-14(15)8-18-19-13(6-7-23(18)20(16)25)12-4-2-3-5-17(12)22-19/h2-5,8-11,22,24H,6-7H2,1H3
COMPOUND_NAME=angustoline.mgf
IONMODE=positive
SKELETON=Angustinan
273.090687388611 0.03977794647308879 
286.098472153352 0.02572270403045838 
288.113986965579 0.09137726958315333 
301.085537493525 0.10923536075686484 
302.093298187433 0.03679019991226734 
314.093326539783 0.027192775456829955 
314.129692958687 0.08467991313301321 
316.109587245266 1.0 
316.149337105002 0.07468271824747769 
317.116027245438 0.025088706542575726 
END IONS

BEGIN IONS
TITLE=Apparicine.mgf
PEPMASS=265.1695335
CHARGE=1+
RETENTION_TIME=1110.016
PRECURSOR_MZ=265.1695335
SMILES=C=C([C@]1([H])CCN(C2)C/C1=C/C)C3=C2C4=C(N3)C=CC=C4
INCHI=InChI=1S/C18H20N2/c1-3-13-10-20-9-8-14(13)12(2)18-16(11-20)15-6-4-5-7-17(15)19-18/h3-7,14,19H,2,8-11H2,1H3/b13-3-/t14-/m0/s1
COMPOUND_NAME=Apparicine.mgf
IONMODE=positive
SKELETON=Vallesaman
101.037726401671 0.05069040835523693 
102.043699052719 0.04797833383011586 
103.053085690127 0.14971605975326038 
104.052202380862 0.05076543864606761 
105.068169520409 0.16653830967487196 
106.064374854213 0.381065230771613 
107.070885663406 0.049628671190613524 
107.081599572041 0.10711892586585323 
108.079820757108 0.7458960279333717 
109.083386522329 0.10669301549574381 
110.095118623099 0.09673130000890337 
115.05278762691 0.3887986830746838 
116.056319215976 0.11821649911546903 
117.056992134087 0.3319077610334109 
117.06675402519 0.20540860685405046 
118.063716848646 1.0 
119.070769836147 0.4548604686272157 
120.077838164218 0.16048314358821503 
127.052353350384 0.16425227132842227 
128.057617019157 0.3526750771303261 
129.061548194743 0.046480679675917146 
129.067015747179 0.1819543102013324 
130.063976676354 0.6122002369071997 
131.070148435423 0.21273327810660048 
132.078891187767 0.23374892094964173 
133.085465743237 0.07799740834362383 
134.094758586269 0.6021542296838528 
135.098105081139 0.11383400624784674 
139.051701850886 0.06971286615130318 
140.051526378183 0.07016839959896101 
141.059457369989 0.04593731249685479 
142.063558084156 0.07798914368886187 
143.071485990455 0.3385848085193687 
144.07831219894 0.3813452032098603 
145.082032742912 0.07519089029880502 
151.051883586298 0.055790397129242164 
152.059437070996 0.15719150772851676 
153.064988012588 0.06919046061417805 
154.063579565906 0.14511543419438003 
155.068989715144 0.07386105508866601 
156.078666995402 0.22023756527528848 
157.084253601733 0.0850542912332723 
158.094552478663 0.27604827564849477 
159.097346639451 0.0521379229587077 
163.051794149378 0.027788943556472562 
164.059508204273 0.03765673811302641 
165.067348380872 0.15868185530854065 
166.066950505517 0.13941930638836522 
167.071148958539 0.408440786748681 
168.077388896167 0.1824852223327617 
169.082530748046 0.0549108888278126 
170.094081595965 0.042934252445524894 
176.059973187198 0.04618646183742437 
177.064203612436 0.05250019355163377 
178.07179416538 0.15405326153858065 
179.075767599008 0.12179449461732907 
180.078928492858 0.44271491005655583 
181.08491308001 0.2650009290478421 
182.09161112911 0.1278754998470942 
183.095304589726 0.026457017988688842 
189.066927338231 0.05458496723170841 
190.064799557929 0.06669240580809742 
191.070972970546 0.37709819648587656 
192.078094199422 0.33815386580678125 
193.085837483431 0.34770438084767874 
194.093260865245 0.30403042244579587 
195.097960180231 0.09928695578119376 
196.107672211602 0.06196064901733835 
203.071161922275 0.05567068544375583 
204.079003095722 0.5068964382628354 
205.084420504094 0.321583910439788 
206.092960148213 0.5819657297477249 
207.094225960374 0.03329491655989068 
207.099755606178 0.3977427040711651 
208.107502353871 0.2651874160469789 
209.111296494171 0.07157335219816591 
216.078945299281 0.11820546667234418 
217.086088540731 0.32501412926926515 
218.092708863042 0.38460432239508535 
219.094494652187 0.32514158302010226 
220.105231808353 0.2838360191848379 
221.114300130638 0.2709876746319616 
222.123831697327 0.29570373438522196 
223.127743737184 0.10096224194728427 
230.09401419425 0.03895746315744651 
231.097414269914 0.03591424114210948 
232.108768927867 0.19126336957910262 
233.106867367015 0.06250457749613865 
233.11624089418 0.16308573563169448 
234.111089086696 0.03847301309570354 
234.121339759634 0.07014171850624591 
235.121317424858 0.46701599510701475 
236.132880755424 0.21634572579927147 
237.141011134793 0.05862431240782104 
248.138364374732 0.044496252840370225 
249.137272600567 0.14520408084264638 
250.143677743661 0.2185044071707009 
251.147540017449 0.061353177537171594 
END IONS

BEGIN IONS
TITLE=oacvallesamine.mgf
PEPMASS=383.1964315
CHARGE=1+
RETENTION_TIME=236.212
PRECURSOR_MZ=383.1964315
SMILES=COC([C@]1([C@@]2([H])CCN(CC3=C1NC4=CC=CC=C34)C/C2=C/C)COC(C)=O)=O
INCHI=InChI=1S/C22H26N2O4/c1-4-15-11-24-10-9-18(15)22(21(26)27-3,13-28-14(2)25)20-17(12-24)16-7-5-6-8-19(16)23-20/h4-8,18,23H,9-13H2,1-3H3/b15-4-/t18-,22-/m0/s1
COMPOUND_NAME=oacvallesamine.mgf
IONMODE=positive
SKELETON=Vallesaman
105.069704776748 0.0372683877039448 
106.06507127561 0.16758622157698277 
106.072441513151 0.02912961037084371 
107.072808482056 0.05286029813146415 
108.080795353521 1.0 
108.087893843889 0.17624537502018647 
108.10482565153 0.038779860887811914 
110.096178210548 0.16077163606339073 
110.103280806504 0.02668687804421764 
115.05407576438 0.029250043545475703 
117.057014843613 0.034898295985199244 
118.06486165607 0.03761967842049967 
120.081046013278 0.04322089560609264 
122.096701965643 0.02877661058391464 
127.054141251385 0.07227377178732124 
128.049327470507 0.048412877425677445 
128.061832798744 0.044886133953865745 
129.06987962452 0.22394900870848108 
129.077822826648 0.042864344637008805 
130.06500832746 0.07813745919978254 
132.080350013296 0.09079113993356526 
142.065065037522 0.08383102758930813 
143.072816958541 0.04185178696100065 
144.080830181369 0.43197551956251073 
144.088696772581 0.0693424397788074 
154.065181339096 0.5320216337607511 
154.073112569708 0.09084004800133942 
155.072758377428 0.18950786346349355 
155.084470848649 0.033019034950386814 
156.080746832027 0.8442798437971082 
156.089342813859 0.15406829363343655 
156.105031434475 0.03463139445610319 
158.096927179684 0.029462326460277827 
160.075528246978 0.05016462338945702 
167.07290802062 0.23524749897506947 
167.082530394647 0.03547579802840823 
168.080454654705 0.05934617926572196 
170.05997360048 0.10073287393794579 
170.067808568226 0.02854542555545299 
172.075683297988 0.4166893689887031 
172.084192300989 0.0726543827830502 
180.080874011557 0.06061578317280011 
181.089078512008 0.028214367366621383 
182.060285076555 0.07980077356414039 
182.096564359447 0.21041245496804242 
182.105328942793 0.04451820282755971 
186.091471245536 0.03299328632127616 
192.080972392673 0.028161355483158287 
193.088734116084 0.0396840205194878 
194.09620164651 0.07400699429375174 
204.080047071197 0.06976831555456674 
205.088896365281 0.05339897255192043 
206.096101821516 0.10017254447011348 
208.111684163808 0.03341920303285283 
214.08659024465 0.05230189264704708 
217.089778849132 0.032231849416777175 
218.096444928334 0.05953837292816153 
219.104373868864 0.2276960687492491 
220.112174367556 0.1554235762062199 
220.120770942018 0.025087925018682084 
222.091562091326 0.03200575066362077 
222.127316019802 0.026447802636962545 
230.09656546499 0.026885314418802476 
231.104110625458 0.025033828336059317 
232.111705186654 0.03309812294949933 
233.107057132785 0.04126446032162862 
234.127350868692 0.07007304177889051 
235.122991100471 0.0605253968881001 
247.122587077926 0.05233687230296926 
248.130803423956 0.02754643810289504 
249.138475015957 0.03748340308455477 
END IONS

BEGIN IONS
TITLE=vallesamine.mgf
PEPMASS=341.185997
CHARGE=1+
RETENTION_TIME=115.608
PRECURSOR_MZ=341.185997
SMILES=C/C=C1CN(CC2=C3NC4=CC=CC=C24)CC[C@]/1([H])[C@@]3(C(OC)=O)CO
INCHI=InChI=1S/C20H24N2O3/c1-3-13-10-22-9-8-16(13)20(12-23,19(24)25-2)18-15(11-22)14-6-4-5-7-17(14)21-18/h3-7,16,21,23H,8-12H2,1-2H3/b13-3-/t16-,20-/m0/s1
COMPOUND_NAME=vallesamine.mgf
IONMODE=positive
SKELETON=Vallesaman
103.055862625793 0.04961122393282753 
105.071036869951 0.04515669321627587 
106.065201183772 0.2064042338680667 
106.072354895706 0.04681497739462094 
107.073659717818 0.08907444090897318 
108.081135384502 0.8523498946233444 
108.088325506745 0.2073822174855221 
108.097497875473 0.05169742270859733 
108.10511677207 0.05012910918594735 
109.088706912208 0.13825858481597697 
109.095619387007 0.05058954329747874 
110.097223128871 0.4065218413143639 
110.103433712313 0.052222991776112254 
115.054265541427 0.08247519547681378 
117.05647212369 0.06494348415417127 
118.065316008153 0.05333909219713924 
120.081692553175 0.03969491131957281 
122.095939729807 0.04090787001019712 
122.101158142503 0.043814654118035284 
123.105251080819 0.07930851426110196 
124.111817195238 0.04222377838382811 
126.091807292277 0.08699501463378134 
127.055118948026 0.1438806236456198 
127.06103203835 0.04304043067731721 
128.049756194032 0.09196489811031885 
128.05497704379 0.03888278681683839 
128.061729012933 0.06647888485885668 
128.064516726172 0.05269419857624003 
129.07000420172 0.1161109730817084 
130.065974389689 0.2510726163627835 
130.073546016191 0.060141176899441796 
131.073873195158 0.21353521652336657 
132.080447554088 0.09909990973196821 
142.065320640215 0.09026098109167721 
143.072522039334 0.05172595162746259 
144.081232845455 1.0 
144.088936923805 0.21607164269591567 
144.100508880312 0.0459914758583377 
144.108995797792 0.041697911940225485 
152.051383622003 0.034720231454524 
154.066109950194 0.5173117009816288 
154.075226194703 0.11508809526778717 
155.072327980138 0.1089497731787873 
156.043715026533 0.04053211134144435 
156.082155437558 0.12047549477145687 
157.054531983314 0.04163607689953772 
157.091101075812 0.04256577047746129 
160.075922931675 0.04293167736421184 
165.068363559703 0.07757210650668472 
166.065467824722 0.043819978109282835 
167.073466330672 0.341941635626039 
167.082740114272 0.11440106057742762 
168.082193314747 0.10318662459914184 
170.061163295033 0.09264504518677616 
172.075733923448 0.14282100549570195 
178.063988223051 0.04928031149665548 
180.081090731352 0.3798602524243346 
180.092137749474 0.06773363927896851 
181.088615432634 0.11740849210178703 
181.093785180078 0.05361599729867399 
181.098453667065 0.03409453298044704 
182.06104582139 0.07071750135018336 
182.098482803003 0.06371728743125576 
191.071572856826 0.03776041271963862 
192.080405210964 0.19337129514960413 
192.086407654158 0.06427406180242524 
192.091253132484 0.05912159900081635 
193.089321440758 0.1917397556335981 
193.097244474123 0.037987569679534094 
194.096812329306 0.28123470551613455 
204.081870497605 0.14912902381023185 
205.089112876896 0.11463685103664344 
205.102575845259 0.03739789208317705 
206.083571882436 0.07461623615882186 
206.097561466304 0.3856426824857955 
206.105086453473 0.10513203977932777 
207.105475416426 0.5219201669910624 
207.116049204316 0.0883269429450401 
208.11270625233 0.1446160059321733 
208.121336549959 0.05427618180614724 
209.120027979504 0.04362903388264772 
216.080155891925 0.04176194372685143 
217.088466318287 0.05735294033004908 
218.096047462046 0.08984338832232881 
218.106612189816 0.03927419130491505 
219.092335266896 0.10564995381077863 
219.103491294055 0.10748994437148604 
219.109051845692 0.05545824216198171 
220.075052512077 0.06741702967333717 
220.100127358839 0.1022650465105794 
220.11419645965 0.05483071146749344 
221.086666174848 0.04504436179734107 
221.10691259853 0.18746876351982011 
221.117730188361 0.043409436031046064 
221.12268120695 0.05596714857580836 
222.128311216584 0.20717894654041294 
222.137185607842 0.03425690032433179 
232.111858549157 0.037204655182833536 
233.107509127957 0.0441958614841369 
234.09321215856 0.06004959465720691 
234.126065348028 0.056637894730783504 
234.129926586155 0.04463039509770723 
235.123761851665 0.08348785698320593 
235.133488890476 0.041929059495362374 
236.129764342763 0.045279586282712565 
247.124006341342 0.04542768916716469 
249.140779403318 0.06662643136224149 
252.10122733071 0.07872097585402096 
263.151851398223 0.035754092998136124 
1165.40102694181 0.04470313712586971 
END IONS

BEGIN IONS
TITLE=stemmadenine.mgf
PEPMASS=355.2016404
CHARGE=1+
RETENTION_TIME=193.705
PRECURSOR_MZ=355.2016404
SMILES=COC([C@]1([C@@]2([H])CC[N@](CCc(c1[nH]3)c4c3cccc4)C/C2=C\C)CO)=O
INCHI=InChI=1S/C21H26N2O3/c1-3-14-12-23-10-8-16-15-6-4-5-7-18(15)22-19(16)21(13-24,20(25)26-2)17(14)9-11-23/h3-7,17,22,24H,8-13H2,1-2H3/b14-3+
COMPOUND_NAME=stemmadenine.mgf
IONMODE=positive
SKELETON=Stemmadeninan
108.081177334536 0.05379408337691743 
115.054054672637 0.02791795487998376 
122.096498891922 0.1666098970091383 
124.112292909902 0.05277401704082781 
128.06232605355 0.02798797079093539 
129.069923571376 0.3207173941347951 
129.077695817379 0.03989646295793639 
130.06541063737 0.06914687728264779 
141.070113196874 0.04638142810169768 
142.06534394497 0.04646087252039625 
143.073401134015 0.06722454302908329 
144.081208764755 0.0868406940794047 
154.065444826217 0.1085186484738948 
155.073402757131 0.05018950804043722 
156.081031592639 0.9251048776666292 
156.089053345039 0.2625469218597939 
158.060459026447 0.035177127951856686 
160.076023438662 0.06111653613507317 
166.06502025273 0.07575582537234055 
167.072953220783 0.24034662041236068 
167.081802465196 0.02904151963932234 
168.080976576842 1.0 
168.089746395443 0.12481595376334834 
169.087850461929 0.032714924737447235 
170.059923012988 0.0593929784374607 
170.096963120655 0.06092068357508711 
182.096969475618 0.02502585253791816 
183.067826310095 0.03485001004089181 
184.075816673854 0.8992413058014287 
184.085007829149 0.1696467150836263 
184.103930811935 0.031356905154398027 
194.09652732875 0.02919267919681693 
196.076069129741 0.13357017700657844 
196.084152930109 0.027234788048911284 
197.107036406152 0.02834441141616297 
208.112423482348 0.031408654366022505 
214.086260736346 0.043515012788344624 
216.101357936139 0.02587877664422362 
228.101836376963 0.03340530776988483 
END IONS

BEGIN IONS
TITLE=Cinchonamine_HCl.mgf
PEPMASS=297.1951346
CHARGE=1+
RETENTION_TIME=1012.502
PRECURSOR_MZ=297.1951346
SMILES=OCCC1=C([C@@]2([H])[N@@](CC3)C[C@H](C=C)[C@@H]3C2)NC4=CC=CC=C14
INCHI=InChI=1S/C19H24N2O/c1-2-13-12-21-9-7-14(13)11-18(21)19-16(8-10-22)15-5-3-4-6-17(15)20-19/h2-6,13-14,18,20,22H,1,7-12H2/t13-,14-,18-/m0/s1
COMPOUND_NAME=Cinchonamine_HCl.mgf
IONMODE=positive
SKELETON=Indolocinchona
103.054036805744 0.030663166614224736 
105.069681268574 0.028184344642925078 
106.065515587458 0.04989606197858898 
108.080863796863 0.1357379063540497 
110.096254904127 1.0 
110.190078819417 0.07070124849636679 
111.099757549848 0.09886573036270271 
115.05404605229 0.06554806655312305 
116.059141172747 0.025451321168906537 
117.059400995268 0.13280788407200791 
118.064410990855 0.035143567938998366 
124.111940376964 0.06080149351264902 
127.054006218075 0.034844754009495875 
128.058673543688 0.07553868585768206 
129.068749844117 0.06113884543249672 
130.065425568899 0.2407789949771347 
131.072382059499 0.11168397881051605 
132.080648748845 0.2071437474396461 
136.111907948588 0.036886836612162785 
142.065782144433 0.024905326019627787 
143.07315726177 0.2224994603420223 
144.080437222907 0.23298963373250156 
145.084707862602 0.030031109942465207 
154.06536349999 0.03095635801172976 
156.080590543959 0.06862390683790272 
158.096363920284 0.11235363813552215 
167.073303129354 0.05055230079264039 
168.080211449113 0.044247287995337184 
174.091708518298 0.12627250510389282 
180.080744332134 0.053283884478091355 
181.087278550647 0.025300216935150454 
182.095936333865 0.03070257688523498 
194.096146169234 0.040179643575610866 
208.111719845282 0.03130209643724845 
210.127805683595 0.09811757628724979 
228.138430571397 0.05580328326442316 
282.185844280603 0.025754181219566075 
END IONS

BEGIN IONS
TITLE=19_20_dehydroervatamine.mgf
PEPMASS=353.1870651
CHARGE=1+
RETENTION_TIME=888.933
PRECURSOR_MZ=353.1870651
SMILES=CN(C1)C/C([C@]([C@]1(C(OC)=O)C2)([H])CC(C3=C2C4=CC=CC=C4N3)=O)=C\C
INCHI=InChI=1S/C21H24N2O3/c1-4-13-11-23(2)12-21(20(25)26-3)10-15-14-7-5-6-8-17(14)22-19(15)18(24)9-16(13)21/h4-8,16,22H,9-12H2,1-3H3/b13-4+/t16-,21-/m0/s1
COMPOUND_NAME=19_20_dehydroervatamine.mgf
IONMODE=positive
SKELETON=Ervatamia
103.049694004476 0.10930686379798495 
106.060613783178 0.027506533104618994 
107.068495206249 0.20871955838158582 
110.090615313692 0.03201234157206646 
115.049552655676 0.028440426548961773 
117.059659795235 0.03032870301668025 
120.076078096424 0.28787225567993874 
121.08333696704 0.04356799527755058 
122.091706601559 0.32481679526573504 
127.049214037716 0.07365485561997036 
128.047839023166 0.07999970930116704 
129.063293328498 0.0391933529367498 
130.060338285804 1.0 
130.161909484487 0.042979095706261024 
134.091584659784 0.1158524637781049 
135.09897624086 0.05135996650399254 
138.08646107072 0.33158304503745445 
143.068412951999 0.030797150119924992 
144.038648801236 0.0490389238704299 
144.074762221145 0.11282732043896462 
154.060414170568 0.13223116277423275 
155.067942563347 0.11745374547863681 
156.075197060273 0.05273234631702161 
158.05597355228 0.03256842030737651 
165.068864160007 0.033496452888151514 
167.068243266616 0.11444198835188532 
168.075386861742 0.04750609705636955 
172.070726850806 0.9761526150118284 
172.186432982923 0.05356212738094652 
180.078250689272 0.09873742932677666 
180.095810787448 0.05391464660282077 
182.111755263806 0.03237948950940587 
191.068411165753 0.04487285794227893 
192.075737653514 0.07368312842582128 
193.083589085334 0.10365579570248662 
194.09095376519 0.03754459824131895 
204.075975760459 0.07340994185320038 
205.083111594619 0.03864911314584665 
206.090906459362 0.06377969904700014 
207.097339154068 0.028488813838577282 
208.10624823137 0.07514738313613872 
217.083387918088 0.03305620826039488 
220.084140356313 0.030273587455688943 
222.120425232098 0.027502125735216033 
249.131476716215 0.028394008509505034 
251.149267676125 0.12164513033740054 
279.143721080301 0.028425024199505673 
293.160085677669 0.08564772974761012 
353.181053692661 0.05966009804521445 
END IONS

BEGIN IONS
TITLE=20_epi-ervatamine.mgf
PEPMASS=355.2024652
CHARGE=1+
RETENTION_TIME=129.332
PRECURSOR_MZ=355.2024652
SMILES=CC[C@H]1CN(C)C[C@]2(C(OC)=O)[C@H]1CC(C3=C(C4=CC=CC=C4N3)C2)=O
INCHI=InChI=1S/C21H26N2O3/c1-4-13-11-23(2)12-21(20(25)26-3)10-15-14-7-5-6-8-17(14)22-19(15)18(24)9-16(13)21/h5-8,13,16,22H,4,9-12H2,1-3H3/t13-,16-,21-/m0/s1
COMPOUND_NAME=20_epi-ervatamine.mgf
IONMODE=positive
SKELETON=Ervatamia
103.054161645281 0.028845236328831826 
107.072945407117 0.047502418246360804 
107.085478633001 0.03398819660590651 
108.080795624834 0.05065095452851232 
109.088706159578 0.03294769994745327 
110.060041563274 0.055743349971150165 
111.067771531544 0.03343429564189791 
122.096560153774 0.34435894241144976 
122.103906992882 0.034842090923949146 
124.112246770228 0.6301297971685542 
124.119296544968 0.058479915639834096 
124.138259156935 0.026868094487930965 
128.061900579839 0.030989610756476087 
129.069879897749 0.18023251896247355 
129.077513542526 0.024630702962184982 
130.065347642485 1.0 
130.072764303601 0.06354178984715732 
130.081392158163 0.035706872470519596 
130.092060643744 0.034867868815766825 
136.112265075244 0.08675074496257582 
138.091329108824 0.04002126709106599 
140.107131312117 0.28646954000534586 
140.11453793315 0.033650864286071974 
144.044425705325 0.02712913693213491 
144.080828852674 0.14623159856885795 
150.091440851097 0.03164376935406364 
152.107070696179 0.030124406404914265 
154.065188470422 0.045309777986420295 
155.07301760972 0.037041086471416206 
156.080786837655 0.17795822448857443 
158.060053607753 0.2309335758824634 
158.068405035345 0.027206563096179814 
164.107022451709 0.040505365593530344 
167.073087112099 0.12782352806718267 
168.080899868694 0.2232179132961732 
168.089467121673 0.030133747752692376 
168.101829844414 0.038564769959071155 
172.075763652438 0.055821225365498404 
180.080729351625 0.07247966274959863 
181.088674839414 0.042121867989447316 
182.096432157596 0.09828581643842024 
184.075599091258 0.0342975048824067 
194.09639580235 0.04209084467320543 
196.075711770889 0.2089671389354378 
196.084936718657 0.029421453468791246 
210.091294316973 0.04277751961716065 
223.123012622161 0.05064701715703017 
END IONS

BEGIN IONS
TITLE=6oxosilicine.mgf
PEPMASS=311.1756337
CHARGE=1+
RETENTION_TIME=267.206
PRECURSOR_MZ=311.1756337
SMILES=CN1C[C@@]2([H])C(C3=C(C(C[C@@]2([H])[C@@H](CC)C1)=O)NC4=CC=CC=C43)=O
INCHI=InChI=1S/C19H22N2O2/c1-3-11-9-21(2)10-14-13(11)8-16(22)18-17(19(14)23)12-6-4-5-7-15(12)20-18/h4-7,11,13-14,20H,3,8-10H2,1-2H3/t11-,13-,14+/m0/s1
COMPOUND_NAME=6oxosilicine.mgf
IONMODE=positive
SKELETON=Ervatamia
107.073179084136 0.054050545382144176 
107.085566406943 0.025394684768289023 
108.08071441633 0.07717696680744147 
109.088829633681 0.03765590121727083 
110.059953015942 0.09380642590634895 
110.096638158256 0.02690196427584297 
111.067460027323 0.036838940925943774 
114.034009150819 0.15497614427029546 
114.040676420404 0.026318008886766855 
115.054068393243 0.24651263133125878 
115.060768118893 0.05060250821485371 
116.049577642394 0.5179923274220304 
116.05652057122 0.09111311084292202 
116.066598446433 0.025000489197779235 
117.057346288463 0.14049050882928613 
117.065056507388 0.0290767174633334 
118.065157740487 0.1029868215010251 
122.096858021937 0.08967239892317784 
122.102709500481 0.025621109960409224 
124.111873165457 0.12196408750182837 
124.118330961647 0.026973142552722065 
127.054190576313 0.04423816740641524 
128.049267424241 0.22600301443671564 
128.06108307558 0.08373068830616737 
129.069884015431 0.25505084477118506 
129.077612283189 0.04826475432732125 
130.065231445462 0.4152901456488548 
130.072510260128 0.0637209092425604 
139.053596363254 0.03010590398123829 
140.049600087622 0.03513663049375221 
140.107125128418 0.04591467265575201 
141.069783639568 0.0721075080607564 
142.06538733931 0.13678202276432946 
142.072706548052 0.031627027785944666 
143.072374831492 0.03400754978932698 
143.085606421674 0.03101604421956566 
144.044586305244 0.7851480043421194 
144.052427002207 0.1506923616169552 
144.066486198811 0.03917780773842399 
144.080744917974 0.040158465836628486 
151.054109834177 0.058399843848068865 
152.061999141471 0.14622402910139748 
153.069660316612 0.11101003197885882 
154.065137953529 0.3223530853459337 
154.072846870213 0.06886109375817877 
155.072800544347 0.14070257606658568 
155.081369189408 0.0319262700675044 
155.084351572995 0.02992860647609804 
156.044136778287 0.048686956470692405 
156.08056460706 0.21733932176641493 
165.070015095897 0.06654916951339007 
166.064505382128 0.1208981866905917 
166.072758907475 0.03447650701044877 
167.072879756893 0.7813276142851622 
167.081332153527 0.15573476772644843 
167.102973239767 0.0359194936998664 
168.080659694762 0.7383770276636451 
168.088479208795 0.14895803319011253 
168.109956180433 0.03425580543234566 
170.023899547468 0.09082059503082679 
170.060171008619 0.25834400192156887 
170.068273006339 0.055931217324645836 
170.095463088667 0.09075856475241945 
172.039837523171 0.1287364314880956 
178.064724056156 0.05951635216956769 
178.074789453755 0.02498304929694941 
179.072876232129 0.07233558429538153 
180.080631960819 1.0 
180.089278450077 0.3132400645154031 
180.106005574194 0.039337897711679545 
182.060356714553 0.05516087758168013 
183.067678652305 0.1897825662630622 
183.076968180756 0.04394446528970537 
183.090519812565 0.05015975976475457 
183.099866182722 0.026245411936327973 
184.075503724343 0.10678781486603563 
184.08533126419 0.02599847712731323 
191.072583787567 0.06947487798184392 
192.080628065826 0.09073019128122366 
192.091162570003 0.025989219059341154 
193.087949771943 0.07123073111097304 
194.059841556847 0.032160693643315134 
194.096470046861 0.2043522214226556 
194.106018560148 0.030789068679943816 
196.075359393944 0.3923334391631196 
196.084415254954 0.0669441111105132 
196.110939527463 0.035682367306325374 
198.090661460669 0.029422922731699965 
204.080900653057 0.198530278651947 
204.090519544026 0.04683835144261979 
205.088392728594 0.05929753400291463 
206.096420253541 0.06634020868198867 
207.066687615207 0.03483247177451113 
207.091163138352 0.024980505468497373 
207.101886728589 0.0364478762212211 
207.106432440183 0.029080423136511126 
208.075084793663 0.23090905666524636 
208.082826347086 0.10887799798744034 
208.11165374163 0.04229715291784461 
209.107092125434 0.02919576374291091 
212.070800204868 0.045615393684358824 
217.088968578677 0.05436509955419406 
218.096117364864 0.1304167035603325 
219.103636558205 0.045970783641030584 
220.076126205454 0.053111994982787576 
220.111123976249 0.027185307629577483 
221.106579171561 0.036716042213854765 
222.091133092686 0.04598384522173623 
232.074783103803 0.03976988381063545 
233.083177368316 0.035309806507602376 
235.122010953759 0.0393406249892988 
236.070265964036 0.08086132319193723 
263.11838053278 0.03264283474458739 
END IONS

BEGIN IONS
TITLE=Ervatamine.mgf
PEPMASS=355.2023688
CHARGE=1+
RETENTION_TIME=899.377
PRECURSOR_MZ=355.2023688
SMILES=CN(C1)C[C@@H](CC)[C@]([C@]1(C(OC)=O)C2)([H])CC(C3=C2C4=CC=CC=C4N3)=O
INCHI=InChI=1S/C21H26N2O3/c1-4-13-11-23(2)12-21(20(25)26-3)10-15-14-7-5-6-8-17(14)22-19(15)18(24)9-16(13)21/h5-8,13,16,22H,4,9-12H2,1-3H3/t13-,16+,21+/m1/s1
COMPOUND_NAME=Ervatamine.mgf
IONMODE=positive
SKELETON=Ervatamia
103.060146202207 0.08504490936990991 
107.080521276375 0.07509293224652365 
108.086495862774 0.04875181288157777 
109.094048402038 0.02678321866515961 
110.066382124191 0.029575569217503955 
122.102849807019 0.32675646675475617 
124.118534700396 0.2768375085231746 
128.062872160197 0.05574618512162128 
129.07601515402 0.058574533513562344 
130.071765564589 1.0 
130.173382392352 0.03815059566965441 
136.118063706272 0.03643061303175084 
138.061866966905 0.030184974539055793 
138.097242208101 0.024943212142383046 
140.113928247096 0.23564009940839378 
144.087271103057 0.09469129121399583 
150.098806853757 0.05004309881979844 
152.11340971919 0.03478704919766917 
154.072618463738 0.04532692886203395 
156.08781761309 0.11377510223146638 
158.067511804492 0.06580325142292719 
164.114143468851 0.02613424769444629 
167.080651471322 0.1407392693264567 
168.092149506926 0.09193064860326518 
168.108727018429 0.13941052005553953 
172.083044437691 0.07291534272687765 
178.130253438236 0.02692084178989465 
180.090988164893 0.0613902786648452 
182.108572741334 0.031192620949143927 
182.124505413038 0.10136637247558822 
194.103067728534 0.027481459513887946 
196.084795206311 0.06703120141390775 
198.156179385133 0.027721134249026714 
210.10204873381 0.05478626049592819 
224.079844149099 0.026474609799139518 
253.178724492615 0.059660916871102955 
279.163921648507 0.07536929759981541 
281.173956454891 0.03382728444395062 
295.190258188795 0.0783382001026911 
323.185386247058 0.05642409558425613 
355.212187899426 0.12515974540920963 
END IONS

BEGIN IONS
TITLE=isomethuenine.mgf
PEPMASS=295.180542
CHARGE=1+
RETENTION_TIME=124.451
PRECURSOR_MZ=295.180542
SMILES=C/C=C1CN(C[C@]2([H])CC(C3=CC=CC=C3N4)=C4C(C[C@@]/12[H])=O)C
INCHI=InChI=1S/C19H22N2O/c1-3-12-10-21(2)11-13-8-16-14-6-4-5-7-17(14)20-19(16)18(22)9-15(12)13/h3-7,13,15,20H,8-11H2,1-2H3/b12-3-/t13-,15-/m0/s1
COMPOUND_NAME=isomethuenine.mgf
IONMODE=positive
SKELETON=Ervatamia
101.038187300026 0.05164410153824895 
103.053952356021 0.15086515824150734 
105.069519022796 0.026109396772740476 
106.064845681218 0.04463571678508273 
108.080606780625 0.07965683901318496 
109.088281731918 0.06833230852741705 
115.054092545672 0.0950575793993457 
117.057044602426 0.06298913639692108 
117.069302693481 0.032156824774037106 
124.111859813998 0.026939972457773496 
127.054303114102 0.05868292092221141 
128.049269411609 0.22225398033709884 
128.060967497215 0.07605433460709733 
129.069686184739 0.10045852532451019 
130.064947054709 1.0 
130.072202571372 0.13296640081145808 
130.087620155551 0.058768578682930825 
141.069702236698 0.030322921585879518 
142.06509866422 0.026120342343783548 
143.072579132525 0.10833000054727855 
144.080608523848 0.17962697394830274 
144.088245562605 0.03860933795886892 
152.061876099399 0.025222681699574784 
154.064996345355 0.16519211829735453 
154.073046416751 0.035466027498147056 
155.072882419762 0.07321871355861564 
156.080581430637 0.0691939131728957 
158.059816423842 0.0320919685510466 
166.064805353386 0.04375157714039775 
167.072813455004 0.4938958630446567 
167.081300820199 0.09130126743274108 
167.10150393637 0.025018529465006736 
168.080663596021 0.2758330953951091 
168.088923116156 0.05303062308282257 
172.075453280789 0.026659721264347177 
180.080545551044 0.410446779884814 
180.089002829894 0.07958532134537412 
181.088362031482 0.10961142479885036 
181.097449412144 0.025038464271996946 
182.096211947172 0.057487674469802234 
183.067697118934 0.03617275974248687 
191.072918370266 0.04397095907223161 
192.080623186819 0.06431875087756488 
193.088581847735 0.08087008870122381 
194.09624907532 0.23037675794662077 
194.104721597402 0.040826261842327814 
196.075862521633 0.08586159102542418 
204.080589625866 0.10020541518507302 
205.088453284182 0.057854623500834416 
206.096218324853 0.12519667977741364 
206.10564311513 0.026141193408983243 
207.103550630668 0.03168876541140118 
208.112185564346 0.03516257268465884 
217.088796703411 0.026986082533072588 
218.096400948447 0.03230426805455847 
220.111863740904 0.04710057518728194 
222.091241728172 0.031349205071712065 
END IONS

BEGIN IONS
TITLE=Methuenine.mgf
PEPMASS=295.1814926
CHARGE=1+
RETENTION_TIME=860.895
PRECURSOR_MZ=295.1814926
SMILES=CN(C1)C/C([C@]([C@]1([H])C2)([H])CC(C3=C2C4=CC=CC=C4N3)=O)=C/C
INCHI=InChI=1S/C19H22N2O/c1-3-12-10-21(2)11-13-8-16-14-6-4-5-7-17(14)20-19(16)18(22)9-15(12)13/h3-7,13,15,20H,8-11H2,1-2H3/b12-3-/t13-,15+/m1/s1
COMPOUND_NAME=Methuenine.mgf
IONMODE=positive
SKELETON=Ervatamia
101.038998138576 0.052480553540871444 
102.045294511037 0.028088160259971195 
103.054628731043 0.17673618195600924 
104.057340827722 0.027289731763220096 
107.07433962554 0.10420317547311155 
108.080465804761 0.04973107814475641 
115.05447505584 0.061021983471812875 
117.061417893207 0.05489210808105931 
120.081130763838 0.07238005596767635 
121.088511660702 0.025175050151982473 
122.096652064381 0.14915808709094672 
124.11202632351 0.05172232407339837 
127.054256248625 0.10024287409953549 
128.054402891872 0.1772835571494313 
129.065766508707 0.0732101289877714 
130.065542753467 1.0 
131.069065901505 0.1583642485989465 
143.073323380518 0.049649286106821115 
144.080866484034 0.1767530109805662 
145.084351510063 0.030273806740247728 
152.061667752503 0.03353175696505669 
154.065565034757 0.13057818869059762 
155.07195619401 0.06905949581433864 
156.079683896557 0.05173992753094381 
158.06398986264 0.026960171804979904 
165.069776645787 0.02835896160450601 
166.067733307952 0.04496232830299393 
167.073464399152 0.2292335943073218 
168.07986268846 0.1503308764943206 
169.084361269819 0.03788124070121929 
172.076290260318 0.41751678062249525 
173.079432779852 0.08046391514597317 
179.07673927459 0.02764512204021392 
180.081336497089 0.19665784508063783 
181.087136932783 0.094646314964875 
182.09560323845 0.06991947386214199 
191.073627401284 0.048731523443724785 
192.080469700096 0.058925652943813404 
193.08835789129 0.0728981814228419 
194.096149925723 0.09829201782983026 
195.102599869737 0.049326645409474 
196.092948636417 0.04366214467301801 
204.081395321314 0.06306910771916081 
205.087744665056 0.04781986688688364 
206.096264305085 0.07510358785867789 
207.103254356828 0.0706713589362865 
208.109552770536 0.04899492001745453 
210.126947265362 0.0430608272433611 
220.11034959716 0.02702631433937143 
222.127888335892 0.0836162744113937 
223.128672823067 0.025911503159537663 
295.181492592259 0.07273328676806774 
END IONS

BEGIN IONS
TITLE=Silicine.mgf
PEPMASS=297.1963784
CHARGE=1+
RETENTION_TIME=276.566
PRECURSOR_MZ=297.1963784
SMILES=CC[C@H]1CN(C[C@@H]2[C@H]1CC(=O)C3=C(C2)C4=CC=CC=C4N3)C
INCHI=InChI=1S/C19H24N2O/c1-3-12-10-21(2)11-13-8-16-14-6-4-5-7-17(14)20-19(16)18(22)9-15(12)13/h4-7,12-13,15,20H,3,8-11H2,1-2H3/t12-,13+,15-/m0/s1
COMPOUND_NAME=Silicine.mgf
IONMODE=positive
SKELETON=Ervatamia
103.05408060697 0.1140650326051172 
108.080781323687 0.03967758639074551 
110.06027771924 0.029282983470333576 
115.05412395289 0.04236148821547529 
117.057261649435 0.09666446183396211 
118.064939831212 0.033099189785657915 
122.096522961438 0.04371094999598415 
124.112219443762 0.06288712837307195 
127.054075326675 0.03724294122307086 
128.049687422353 0.06216087676501975 
128.06177111267 0.07728151528749493 
129.069862349349 0.11069141927173635 
130.065252647635 1.0 
130.072421377392 0.14620030937101414 
130.091507916574 0.058345109040535935 
143.073223240931 0.07977312244058259 
144.080682247814 0.15296858839812097 
144.088381604355 0.0255036736094683 
154.065066906158 0.11917165540904488 
154.073492712963 0.025813258436637468 
155.072830048872 0.10707315448512587 
156.08087792865 0.09447378282132879 
158.060214016364 0.025934210825682893 
165.07021653121 0.030152023808903777 
166.064978614661 0.0349198351885269 
167.072936070635 0.36392294287875127 
167.082267038687 0.07279245579895215 
168.080656462337 0.3477389408634264 
168.08917444811 0.08618183921424258 
180.080676772224 0.1982945943404786 
180.089402093628 0.0429218428380994 
181.088494396506 0.1424422985778418 
181.097061405027 0.029855317105289488 
182.096469193707 0.1040180951616029 
182.105643441269 0.041747296567176906 
192.080691228197 0.038476505373971334 
193.088365443013 0.0561253733847179 
194.096277988524 0.1551277711060192 
194.105775704897 0.03391507839674215 
206.096729656739 0.033729115880360094 
208.112119986846 0.03274258802038461 
210.091005739924 0.0311323839851844 
END IONS

BEGIN IONS
TITLE=Naulafine.mgf
PEPMASS=312.1124134
CHARGE=1+
RETENTION_TIME=1328.334
PRECURSOR_MZ=312.1124134
SMILES=O=C1C2=C(C3=CN=C2)C(C=C3)=C(N1CC4)C5=C4C6=CC=CC=C6N5
INCHI=InChI=1S/C20H13N3O/c24-20-15-10-21-9-11-5-6-14(17(11)15)19-18-13(7-8-23(19)20)12-3-1-2-4-16(12)22-18/h1-6,9-10,22H,7-8H2
COMPOUND_NAME=Naulafine.mgf
IONMODE=positive
SKELETON=Naulafinan
114.033610193246 0.1917988062519769 
115.052123426601 0.14785721068484411 
116.050234483381 0.10607732787354497 
117.056999325068 0.03580434528652617 
140.048249301794 0.05536985079174447 
141.044803012298 0.3176709753359936 
142.054665567806 0.09890332854440485 
143.065755420488 0.028219946399525072 
167.053231795928 0.03525840060718968 
169.042217180687 0.052689929518722936 
170.057689587827 0.03404863255938511 
214.064606828476 0.10446302858395963 
215.068688871889 0.05109322151424416 
216.076308483348 0.02624862941686427 
228.078205365876 0.03078303762895437 
240.072958443768 0.047509552238602044 
241.076628786795 0.12792976875828757 
242.082861708024 0.16432965590080018 
243.088277406173 0.07273323482213674 
254.08209486306 0.04023994512885361 
255.090421020456 0.10740883444585403 
256.095901780896 0.06170759800053697 
257.101993915234 0.026037062617460256 
266.080419362546 0.03274621138371341 
267.081914901911 0.08933278134271717 
268.087131869959 0.22646825746536567 
269.093112631313 0.13496409669946505 
270.093216669037 0.03805585899099122 
280.086258732797 0.049616236721995534 
281.093404924958 0.08902618061433551 
282.100263674099 0.08892702041887071 
283.10410966928 0.04045025491992379 
284.110555068556 0.02644853814712873 
295.090353353101 0.02494081130323755 
296.082422536348 0.14712425185801545 
297.088746554512 0.31403658167514126 
298.091723251198 0.0875957871092429 
309.088764676845 0.041746749711195505 
310.096931787005 0.2646799103425143 
311.101327015454 0.11628358654536536 
312.11241339832 1.0 
312.265782543495 0.04569614692787847 
313.115982033905 0.33992019363393594 
314.118511730465 0.04344753663940189 
END IONS

BEGIN IONS
TITLE=10-hydroxypericyclivine-N-oxide.mgf
PEPMASS=355.167
CHARGE=1+
IONMODE=positive
SMILES=C/C=C(C1)\[C@@H]2C[C@@]([N@@+]1([O-])[C@H]([C@H]2C(OC)=O)C3)([H])C4=C3C5=CC(O)=CC=C5N4
INCHI=InChI=1S/C20H22N2O4/c1-3-10-9-22(25)16-8-14-13-6-11(23)4-5-15(13)21-19(14)17(22)7-12(10)18(16)20(24)26-2/h3-6,12,16-18,21,23H,7-9H2,1-2H3/b10-3-/t12-,16-,17-,18-,22-/m0/s1
MS_LEVEL=2
INSTRUMENT_TYPE=LC-ESI-qTof
PEPTIDE_SEQUENCE=*..*
ORGANISM_NAME=MIADB
PRINCIPAL_INVESTIGATOR=Mehdi Beniddir
DATA_COLLECTOR=Alexander Fox
SUBMIT_USER=mbeniddir
CONFIDENCE=3
SPECTRUM_ID=CCMSLIB00005436295
PRECURSOR_MZ=355.167
COMPOUND_NAME=10-hydroxypericyclivine-N-oxide.mgf
SKELETON=Sarpagine
101.037064 0.030592499361777034 
102.042801 0.032447764779786975 
103.051933 0.24545156851158004 
104.049454 0.1393565566670795 
105.062103 0.13591639042123796 
106.062958 0.5445537194215542 
106.15612 0.0324593161788413 
107.068756 0.17310128108074122 
108.042252 0.050605591119365544 
108.077431 0.13790184474420517 
115.051872 0.36895477814867533 
116.052597 0.17411343091633497 
117.059929 0.4053595371922386 
118.062988 0.33067736473948317 
119.067085 0.06729453568125522 
120.042648 0.06496617518796585 
120.077202 0.13012945886036928 
122.05793 0.12207891302065184 
123.064453 0.04667387105683314 
124.073425 0.043495292102294685 
127.051674 0.3308899043870995 
128.055176 0.1673830832396897 
129.065323 0.18524268826763546 
130.062698 0.5648957051663704 
130.164963 0.031702754392361795 
131.061935 0.04225778592246042 
131.06842 0.20988989513139025 
132.069382 0.02542003205327625 
132.077118 0.2101981191474112 
133.052185 0.18788298888554156 
134.058029 0.32452629619400314 
134.090637 0.03543889468639589 
135.062668 0.0307233189536148 
136.070847 0.046122835861661986 
137.044739 0.030492801558158842 
138.051254 0.02776370995198527 
139.051559 0.0893732810473632 
140.050461 0.07292219025908908 
141.061951 0.05885019994656069 
142.062592 0.08843075105842513 
143.069824 0.11429266863623598 
144.046341 0.12860826447032375 
144.05864 0.029951439761715663 
144.072601 0.13134953417322642 
145.062286 0.13990746414227165 
146.057968 1.0 
146.166199 0.061363662494197 
146.200714 0.0261860457067741 
147.064499 0.28070471453262413 
148.070984 0.10830539547050859 
150.053177 0.1045457651638263 
151.058151 0.12481060310385876 
152.057419 0.08885341152167424 
152.066971 0.037911448322023984 
153.063461 0.06758668990150399 
154.063507 0.3037872355414162 
155.065308 0.2007623933708546 
156.075073 0.1972750475740352 
157.076614 0.07228450742355223 
158.059387 0.13853472179672216 
159.065521 0.3914447363310246 
160.072723 0.4028394607050542 
161.07753 0.06540498925300514 
162.083008 0.02487400615601215 
164.067642 0.2561678169231249 
165.072418 0.21926571637937733 
166.065018 0.11932550913498106 
166.07605 0.09363299902996901 
166.082993 0.17265694677248197 
167.070999 0.30964258148945606 
168.076538 0.14562282003394886 
169.076141 0.03273130130208667 
170.057999 0.3921977896110964 
170.174667 0.025282640441248522 
171.064713 0.1449539077016387 
172.073334 0.593058549633407 
172.190964 0.031208252846948954 
173.079742 0.235092847199701 
174.088165 0.5216916572222519 
174.207214 0.029165328849615323 
175.091324 0.05755504843651585 
176.068283 0.1391308450546434 
177.065094 0.03478636347139408 
178.067245 0.05810065520559485 
178.080582 0.060141723175931854 
179.074173 0.06446497390238402 
180.078003 0.14526067879662857 
181.081589 0.08910659264102527 
182.065308 0.04721068054831004 
182.078949 0.9552430970078635 
182.19989 0.05360315133126708 
183.066666 0.33769672928959116 
183.077728 0.1265496378803322 
184.069901 0.9081616693399026 
184.187439 0.04523788731024656 
185.07576 0.744789250123742 
185.193268 0.028582066202279294 
186.083633 0.15098666804687602 
187.087601 0.02604381443617652 
189.068024 0.058021359965608345 
190.068527 0.06947188561046898 
190.083542 0.046833666963592216 
191.071762 0.11934091633022723 
192.077957 0.14788665787180852 
193.081512 0.09181876429283618 
194.082321 0.07406418370445876 
195.073318 0.06472822962992092 
196.073669 0.3467741456570867 
197.078384 0.1940094857223607 
198.083588 0.10416950995326957 
199.083313 0.04728660696948502 
200.0802 0.029030673440312602 
202.069778 0.026639694221756834 
203.072861 0.045959212083150944 
204.0784 0.24149686539250662 
205.082428 0.1405612726224604 
206.088135 0.11875551425879828 
207.073944 0.13607935558842865 
208.075089 0.24355814231920558 
209.080933 0.31966908188195564 
210.088181 0.31995254260934713 
211.091141 0.11670869454051748 
212.094757 0.04459886334953324 
215.075943 0.03408606194328924 
216.076584 0.07179314521952831 
217.08548 0.10373853918979865 
218.090134 0.09118679730239188 
219.089264 0.08843022418898788 
220.075211 0.38860160343787536 
221.080978 0.2697288107824746 
222.086731 0.4432779067534428 
223.092499 0.299845800193496 
224.102448 0.2847239044042761 
225.105392 0.06530538921762485 
228.074661 0.028925812623574514 
229.078171 0.03418857177723903 
230.087646 0.055952794563916546 
231.090256 0.05104329154204815 
232.081436 0.08102106526038914 
233.082581 0.31176628556145286 
234.087067 0.3609773247264716 
235.088669 0.3119060201778575 
236.100616 0.26284174065316845 
237.104645 0.1437495908630176 
238.118683 0.2883956098708025 
239.124344 0.1617871052766509 
240.126114 0.033148533306545235 
244.085724 0.03613435452862962 
246.088715 0.2478177006354884 
247.091537 0.36284637082285204 
248.096146 0.3919433870427398 
249.09848 0.32916538273332074 
250.112961 0.18856263038275542 
251.116364 0.1046982087029046 
252.120102 0.03258794641611817 
254.082092 0.04721493150475441 
258.082245 0.039803249959427314 
259.091278 0.06531627804885153 
260.102997 0.14491400861454393 
261.103821 0.22712085414993333 
262.113342 0.3004069099641546 
263.116638 0.44513191285769144 
264.119324 0.13149828158243584 
265.129303 0.0815971112384348 
268.095245 0.04830284008409037 
269.100067 0.03408638925434657 
272.092896 0.04450246851013423 
273.098846 0.025697786875891044 
274.093231 0.028801135950727377 
275.093262 0.05394903518205235 
276.094666 0.07677118237013553 
277.129456 0.25543749927074577 
278.133575 0.14109487296144874 
279.144623 0.19391428035292496 
280.147247 0.04447434434840623 
287.115875 0.043673760271064996 
288.105896 0.03332046140146954 
289.107819 0.06786021175179846 
290.112762 0.05629835110364449 
291.11087 0.20509991374766048 
292.110046 0.047414977744899764 
293.099396 0.029386931220504404 
295.139618 0.04898538742336646 
305.12619 0.16064210220447417 
306.131989 0.19340833318780554 
307.129211 0.05194808982512261 
309.122589 0.04281346324512278 
321.134186 0.02531424717954714 
322.141754 0.055093611180331015 
323.137329 0.1512604373914155 
324.141052 0.030891235575229995 
337.151978 0.13485999875767565 
338.1586 0.0913155313244136 
339.163452 0.025375560682488307 
355.162262 0.08285580032939158 
END IONS

BEGIN IONS
TITLE=10-methoxy-pericyclivine-N-oxide.mgf
PEPMASS=369.185
CHARGE=1+
IONMODE=positive
SMILES=COC1=CC=C2NC([C@@]3(C[C@H]4/C5=C\C)[H])=C(C[C@H]([N@+]3(C5)[O-])[C@H]4C(OC)=O)C2=C1
INCHI=InChI=1S/C21H24N2O4/c1-4-11-10-23(25)17-9-15-14-7-12(26-2)5-6-16(14)22-20(15)18(23)8-13(11)19(17)21(24)27-3/h4-7,13,17-19,22H,8-10H2,1-3H3/b11-4-/t13-,17-,18-,19-,23-/m0/s1
MS_LEVEL=2
PEPTIDE_SEQUENCE=*..*
ORGANISM_NAME=MIADB
PRINCIPAL_INVESTIGATOR=Mehdi Beniddir
DATA_COLLECTOR=Alexander Fox
SUBMIT_USER=mbeniddir
CONFIDENCE=3
SPECTRUM_ID=CCMSLIB00005436292
PRECURSOR_MZ=369.185
COMPOUND_NAME=10-methoxy-pericyclivine-N-oxide.mgf
SKELETON=Sarpagine
103.050819 0.11636232577921998 
104.047348 0.09340001964577531 
105.05574 0.035286942051268706 
105.062523 0.03140281824090362 
106.061737 0.32350328784530924 
107.068649 0.09305372036489043 
108.041122 0.02661779322313083 
108.077118 0.10037220935892134 
115.050369 0.1484483965059084 
116.053513 0.07376574612491461 
117.054947 0.3306942682156528 
118.060966 0.1777760292307517 
119.06813 0.03201373079578666 
120.040588 0.0388343836449562 
120.075836 0.07027790413579603 
122.055939 0.09188225147125931 
123.064285 0.027690602185327883 
124.071335 0.027430969817981116 
127.049614 0.07160314117059305 
128.052612 0.07375600011928621 
129.061661 0.0655027146196029 
130.060822 0.4167126181745937 
131.068619 0.2104412406305405 
132.040466 0.053163528065483995 
132.075317 0.17596232320777197 
133.050049 0.06690546717582392 
134.055801 0.19423163892478687 
134.088577 0.03080987428305508 
136.07106 0.03832160486636025 
140.048218 0.02511492560718157 
141.054977 0.07949732390719703 
142.060562 0.12421830853129953 
143.068253 0.2421270722284961 
144.074844 0.23825072628880825 
145.049286 0.13169212335301214 
145.079498 0.09316283153522198 
146.05545 0.15641404826917177 
147.063217 0.06646255498939588 
148.070099 0.05608891658274903 
150.049835 0.08145933567130034 
151.055893 0.05650294330426168 
152.056625 0.034958424529531636 
152.064713 0.04612904175537664 
153.05867 0.0348399515050272 
154.060257 0.35882659327416055 
155.064682 0.37527361463322007 
156.071365 0.32695935527983744 
157.080963 0.06311637228750631 
158.056183 0.236612469577163 
159.063751 0.11351134271285317 
160.070282 0.44143318539061416 
161.07753 0.1532067252176776 
162.084183 0.04620582057337531 
164.065002 0.22027997967019974 
165.070587 0.16606490810485586 
166.062836 0.05400438499070372 
166.080215 0.18724479860371254 
167.06778 0.2759879280684024 
168.073883 0.13603604645120912 
169.064453 0.0550980804800686 
170.06073 0.07075603250483604 
171.062286 0.1012291008891884 
172.07016 0.14283114497305943 
173.077423 0.22231039242249462 
174.085205 0.25870554899993736 
176.064789 0.11845535090778393 
178.064163 0.04442219454484535 
178.078201 0.04896450063676495 
179.068298 0.0732907594689959 
180.074661 0.20346507252921442 
181.081406 0.15983041597223502 
182.068192 0.04562965844279142 
182.075272 1.0 
183.056519 0.3965506600571743 
184.06636 0.3151424488618102 
185.075745 0.07321225983698648 
186.0849 0.390228506381638 
187.092453 0.18376507125905303 
188.100296 0.5899128196909544 
189.102722 0.028287606095103963 
190.079025 0.0667323385945203 
191.067429 0.10972074277508936 
192.074036 0.17351506305954695 
193.07959 0.16810439331521532 
194.088501 0.2078856796900628 
195.09227 0.12608190238240344 
196.072021 0.06385333312149637 
197.074982 0.10631395269076355 
198.079178 0.5181013600965355 
199.088577 0.5433887117676692 
200.096207 0.08307638481707398 
203.068939 0.041384074323544344 
204.074524 0.20647111823791495 
205.07962 0.16671922779116147 
206.086044 0.20445230383326854 
207.091751 0.1476466341798473 
208.087448 0.090656600625126 
209.096924 0.08424064945906808 
210.085297 0.16407751040032428 
211.088516 0.08523605860655266 
212.092331 0.059038575401847655 
213.092056 0.038279234439482876 
216.073242 0.04989188238561172 
217.080307 0.15350620996830205 
218.086838 0.19266154113978873 
219.086746 0.2039050956259674 
220.085907 0.15587112366745667 
221.085602 0.0844368011756013 
222.084625 0.137024382875066 
223.090546 0.1430458730486314 
224.098053 0.1678480184108112 
225.103714 0.04361970599104105 
226.105591 0.03931066225856434 
230.087189 0.074501586060914 
231.091965 0.09542333867996833 
232.091721 0.12951978291185412 
233.09874 0.18715529523756896 
234.093658 0.17284069352113227 
235.090668 0.13255932924855182 
236.096817 0.2158938097840407 
237.103149 0.1596042158176279 
238.113068 0.2534016539608283 
243.087509 0.035135223651911296 
244.091797 0.03623438417101651 
245.088882 0.02845738517403531 
246.085159 0.09679473773504588 
247.089462 0.1639179115289583 
248.100327 0.1972649861149071 
249.098938 0.169827575088804 
250.110977 0.18951875652434702 
251.113663 0.09246513894667745 
252.128098 0.2833325502681887 
253.133453 0.16237829375427298 
259.093506 0.04564978722894998 
260.097473 0.11937604412756833 
261.100525 0.19837131669957542 
262.105377 0.26564911113101025 
263.107422 0.20787978580400115 
264.122284 0.14606571686890368 
265.123444 0.08028886136393679 
268.090027 0.042903552793279134 
274.10907 0.07452374613788532 
275.111572 0.12890542609925157 
276.121887 0.282894632136902 
277.124847 0.36184036421646865 
278.123047 0.07440062113452722 
279.138702 0.08273142219874435 
282.1026 0.04629483977332014 
283.109955 0.0270412791838616 
289.103271 0.039199972364133084 
290.101135 0.06302562701415472 
291.136292 0.23054074428289953 
292.138123 0.11220727116875992 
293.152863 0.23307336102219714 
303.114441 0.06043416582470929 
304.116028 0.08998188379413746 
305.118164 0.24743833468984697 
306.115234 0.027095847917517322 
307.10614 0.028491446229472934 
309.144592 0.0392982797435973 
319.13266 0.1781575552130405 
320.139191 0.21587358102624876 
321.134033 0.02776362359599723 
323.13031 0.04152694396160548 
336.144348 0.07740563544118834 
337.142548 0.20031763589180923 
351.157501 0.22311322831198258 
352.164215 0.09895001738540331 
369.180389 0.08907575698883591 
END IONS

BEGIN IONS
TITLE=10MeOaffinisine.mgf
PEPMASS=339.2065016
CHARGE=1+
RETENTION_TIME=207.149
PRECURSOR_MZ=339.2065016
SMILES=C/C=C1CN2[C@H]3C[C@H]/1[C@@H](CO)[C@@H]2CC4=C3N(C)C5=CC=C(OC)C=C45
INCHI=InChI=1S/C21H26N2O2/c1-4-12-10-23-19-9-16-15-7-13(25-3)5-6-18(15)22(2)21(16)20(23)8-14(12)17(19)11-24/h4-7,14,17,19-20,24H,8-11H2,1-3H3/b12-4-/t14-,17-,19+,20+/m1/s1
COMPOUND_NAME=10MeOaffinisine.mgf
IONMODE=positive
SKELETON=Sarpagine
106.065123773364 0.06795248652693392 
107.073002348706 0.061078924854832704 
108.080795063069 0.2475053822846356 
120.080814022888 0.2325484477428874 
121.052231671004 0.053533229892612826 
121.088689550131 0.07744014856398204 
122.096459500885 0.045862103880846244 
123.067964727248 0.36579535972140903 
123.075607728109 0.030035960890407252 
130.065136826485 0.04351353913281185 
131.073059858968 0.08997559360722943 
132.080749234702 0.05111306890999939 
134.060066045659 0.028713213873823064 
136.075747629293 0.279339136354562 
136.083759517057 0.025871590202398796 
138.091540193178 1.0 
138.108082212611 0.03500425125083959 
138.11921680579 0.030142720905861124 
143.072756252301 0.034206375727272684 
144.080917672014 0.08638005512263758 
145.088705434844 0.2661715092467099 
145.096952774729 0.025386717809341933 
146.096646714273 0.03532072527871306 
156.080670094668 0.05389432290452351 
157.088610316815 0.15640354232603743 
158.060079002337 0.03209925378100409 
158.096503856714 0.11095378105196435 
159.067834502994 0.030999864994061176 
160.075771856076 0.07001127921956991 
161.083620736715 0.03397487884174479 
168.080858567097 0.11507779358166446 
169.08866572544 0.07162896873176282 
172.075910721004 0.08409685096253967 
173.083624974795 0.22836398175600595 
174.091418949935 0.12098889935211511 
175.0990374541 0.026188255728057823 
184.075629577031 0.037657656536274224 
185.083610846281 0.12158948428210113 
186.091444022658 0.14269780644074076 
187.099266885951 0.11358785702966825 
188.107069320351 0.24479425238546398 
188.116385094693 0.025275086568967688 
200.107038028415 0.1894322425779049 
201.114873414349 0.041895550405328996 
202.122633091962 0.06022759751186927 
291.149427582487 0.02915260554280765 
END IONS

BEGIN IONS
TITLE=Akuammidine.mgf
PEPMASS=353.186152
CHARGE=1+
RETENTION_TIME=666.418
PRECURSOR_MZ=353.186152
SMILES=C/C=C(C1)\[C@@H]2C[C@@](N1[C@H](C2(CO)C(OC)=O)C3)([H])C4=C3C5=CC=CC=C5N4
INCHI=InChI=1S/C21H24N2O3/c1-3-12-10-23-17-9-15(12)21(11-24,20(25)26-2)18(23)8-14-13-6-4-5-7-16(13)22-19(14)17/h3-7,15,17-18,22,24H,8-11H2,1-2H3/b12-3-/t15-,17-,18-,21?/m0/s1
COMPOUND_NAME=Akuammidine.mgf
IONMODE=positive
SKELETON=Sarpagine
103.054023561494 0.03117862226968794 
106.064924416212 0.20422898118365326 
107.072411936058 0.09343716389248595 
108.079659929897 0.04426068640640938 
115.054205097728 0.08675574054296692 
116.056974856436 0.02868426162577372 
117.061418101423 0.10972327121740742 
118.064968058431 0.03691109550402415 
120.080120419504 0.04356090819796567 
127.054153554542 0.06776091399808597 
128.060617733179 0.19685885659454766 
129.069313052611 0.25888805389572644 
130.066099359917 0.2178211217684819 
131.072414739326 0.0624185618980011 
132.080406149115 0.06364081115943143 
134.060764567648 0.06623674325767538 
136.075146101436 0.03983979689491821 
138.054825032111 0.037709935984324545 
138.087630066134 0.02674156807512921 
142.066576429455 0.02621504324241855 
143.073911216362 0.20396784968105644 
144.080565156038 0.31172311486633875 
145.083781533878 0.037472780413750316 
151.062773097169 0.2804704906271317 
152.066551336476 0.05061887913936303 
154.065609692754 0.08513857874356785 
155.072494061685 0.06760191504841209 
156.080688890999 0.3642563174027566 
157.087377068578 0.13184095817987182 
158.096162770758 0.3150840954397185 
159.099368317399 0.03908587582446819 
160.076344431987 0.034562778106311164 
164.070634849628 0.025089580336079144 
166.086181046674 1.0 
166.201804475026 0.06836393737383163 
167.074647616531 0.07362798785000889 
167.086023882019 0.1298766087453205 
168.082105276382 0.13765179608290137 
169.084549565772 0.03732638411674886 
170.096354238489 0.1259819540605255 
180.083094270701 0.05927948005704293 
180.100990800063 0.04846397683986751 
181.090005185321 0.038510163449911546 
191.074028456967 0.027286085889694323 
192.082617453569 0.040806727382998335 
192.101588446805 0.029645228077121423 
193.089725472071 0.0534705902378932 
194.096442758426 0.06270537154183589 
196.103599669513 0.030748171385989176 
204.081218425967 0.04906411906890416 
205.087678258937 0.03362880112774513 
206.09546686974 0.07921085580774871 
207.102916296342 0.0660524633489138 
208.110180427114 0.03339230752742133 
217.088666924479 0.06532240472987201 
218.0946896196 0.05332789466981555 
219.09533267811 0.04744574050514004 
220.105361265112 0.03142873984821337 
222.126967827931 0.0866920022645687 
224.142752846609 0.025341866655234545 
230.096257216568 0.037227763158392456 
231.101996782876 0.041238117634004846 
232.107003048208 0.038434623187620025 
233.109623428981 0.03473729237775931 
246.125648809749 0.032873234588386896 
247.123361656898 0.036986913163373 
249.138512681354 0.03297206989901486 
263.152901287756 0.030732019311878772 
291.149391730665 0.0782409117789095 
323.175596234156 0.0363063194832345 
353.18615197859 0.03455061676713904 
END IONS

BEGIN IONS
TITLE=macusine_B.mgf
PEPMASS=309.1956417
CHARGE=1+
RETENTION_TIME=178.56
PRECURSOR_MZ=309.1956417
SMILES=C\C=C1\C[N+]2(C)C3Cc4c([nH]c5ccccc45)C2CC1C3CO
INCHI=InChI=1S/C20H25N2O/c1-3-12-10-22(2)18-9-15-13-6-4-5-7-17(13)21-20(15)19(22)8-14(12)16(18)11-23/h3-7,14,16,18-19,21,23H,8-11H2,1-2H3/q+1/b12-3-
COMPOUND_NAME=macusine_B.mgf
IONMODE=positive
SKELETON=Sarpagine
103.054536262738 0.030713454795570503 
105.070011699429 0.07429847121170521 
106.064918512303 0.06290387909831377 
107.072700459311 0.23449833550689822 
107.080318965102 0.025124014745921703 
108.080270904391 0.08017138630539732 
115.054381445637 0.04535043013704899 
117.057203702869 0.10442316877159265 
117.069966402625 0.047497165070812454 
118.064758795116 0.04719038140343652 
120.080891336813 0.192228397339099 
121.088608275843 0.21584035451987096 
121.096473139222 0.0354586186137232 
122.096437478972 1.0 
122.103944025852 0.14467145923421879 
127.054140828278 0.05754425420985197 
128.049270894797 0.030925019876678794 
128.061796607259 0.17317402675772758 
128.069772717054 0.026363107597181232 
129.069982169256 0.463232076669641 
129.078141959077 0.06478363734642048 
130.065297316534 0.3873780587205711 
130.07290912564 0.06117097947697166 
131.072718855352 0.21301758013590502 
131.082315966141 0.03167681235271238 
132.080562964663 0.11831610926167432 
133.088197251173 0.06652944250920906 
134.096567128002 0.5263189034365204 
134.104524069066 0.07123513896515432 
135.104156135905 0.2582003812318393 
135.112514208814 0.04300101385361613 
136.112137113458 0.17585989872903654 
136.120080551128 0.02585142611595397 
137.083527872524 0.10729111255062118 
143.073374139794 0.09136569228041275 
144.080745478184 0.3311549422861327 
144.089113899861 0.043984855829729795 
145.088398946951 0.08793748355526575 
146.096857051874 0.12178092539524563 
148.112161852038 0.3649905192532089 
148.120597844487 0.050689588481250145 
150.091447027731 0.0302563805568902 
152.106917946222 0.2522052031139177 
152.116088089036 0.03670361011966047 
154.065137760516 0.07475368648042648 
155.072948121415 0.09273653962751961 
156.080770952747 0.33244084900588006 
156.089203012258 0.062282125145857646 
158.095895232191 0.11386126650193333 
160.111997640259 0.12520357508522661 
165.07027762781 0.033071111320841055 
167.072759314426 0.14307673113002492 
168.081131239066 0.22461880391012884 
168.089637922442 0.03430198180497403 
170.096713720333 0.04466572145194134 
180.080746253597 0.2114494317271833 
180.089736955022 0.03172830939552017 
181.088700360052 0.0708745345425218 
182.096980723284 0.04033896887226303 
191.072724203444 0.03329647567895303 
192.080333124384 0.09004677096918114 
193.088609757608 0.18076820503580662 
193.098706461371 0.029300083510650467 
194.096702944187 0.18619085615576453 
194.106615021408 0.030905840311620567 
195.104434344092 0.07930524930217128 
196.112288628348 0.031231249428009245 
204.081222668238 0.10906112007229964 
204.092521330225 0.026503245332555426 
205.0887355374 0.08494211096048687 
206.096298510526 0.23819411078316974 
206.105813605023 0.029628853072734346 
207.103998812654 0.14007517388519003 
208.112268838345 0.05353912130779967 
217.088937474563 0.10260597201249229 
218.09630737977 0.12195940438602512 
219.103909428145 0.043384944774292444 
220.112602782947 0.10434965008465465 
222.12707890743 0.052525857557141876 
230.096326428022 0.1553258953085318 
231.104089898235 0.04437055634680944 
232.111874976151 0.0768429363431487 
233.107423230989 0.030877884263390304 
233.119290501175 0.027550721280344113 
234.12808681632 0.031609281694007826 
244.112093999122 0.14760659405244012 
245.120287556172 0.02720057356373121 
246.126768367079 0.025361623281167776 
247.122933675618 0.12264806338229575 
261.13841505432 0.12914521701329307 
275.154376879925 0.05422365124579587 
279.149394234478 0.025328286944882972 
END IONS

BEGIN IONS
TITLE=N-methyl-10-methoxy-16-epi-pericyclivine N-oxide.mgf
PEPMASS=383.1955856
CHARGE=1+
RETENTION_TIME=1282.175
PRECURSOR_MZ=383.1955856
SMILES=C/C=C(C1)\[C@@H]2C[C@@]([N@@+]1([O-])[C@H]([C@H]2C(OC)=O)C3)([H])C4=C3C5=CC(OC)=CC=C5N4C
INCHI=InChI=1S/C22H26N2O4/c1-5-12-11-24(26)18-10-16-15-8-13(27-3)6-7-17(15)23(2)21(16)19(24)9-14(12)20(18)22(25)28-4/h5-8,14,18-20H,9-11H2,1-4H3/b12-5-/t14-,18-,19-,20-,24-/m0/s1
COMPOUND_NAME=N-methyl-10-methoxy-16-epi-pericyclivine N-oxide.mgf
IONMODE=positive
SKELETON=Sarpagine
103.053367224798 0.03767524073074549 
104.049979804012 0.03818010721023086 
105.060228630052 0.035961973596535794 
106.064281707037 0.16082644442842597 
107.071577937815 0.02682610555056444 
108.079677784401 0.09338518985071792 
115.053122056839 0.07544562878325706 
117.06017539513 0.059845236985947334 
118.063779936571 0.04034818931097472 
120.078293882939 0.028596775341998528 
122.058814008091 0.05429235401880135 
128.056019629237 0.02749079623551088 
129.065772214689 0.026738210478753983 
130.063984946203 0.116416192999513 
131.071739839476 0.2262616277740955 
132.078884142084 0.10822071101937625 
133.053365212449 0.05611703109588968 
134.058837771043 0.1839699123928205 
142.064135243637 0.034822776987599974 
143.071486014746 0.07143282702372936 
144.07907994317 0.15232900513195577 
145.086921811131 0.3579856721912695 
146.05966279822 0.04415219220132597 
146.089276113291 0.031177609359534026 
150.0536447545 0.07110004764508455 
151.061388398768 0.0358578708449003 
154.063133074739 0.03357936774445356 
155.062592970309 0.09897071893092164 
156.078912847477 0.0992624242029997 
157.086959183669 0.1578671967988129 
158.094177599734 0.1614613459472669 
159.066938198147 0.12353966057712085 
159.097640304655 0.0912620167584113 
160.074872749043 0.1262801319997398 
161.080798742981 0.05355585507103689 
164.0690939402 0.14894703923599084 
165.076416985317 0.0857854472396618 
166.083999664523 0.11408206733955825 
167.069184949338 0.028771664448503747 
168.078211513393 0.12994911118182664 
169.078032869301 0.22751187171341217 
170.084500566578 0.2308684547345325 
172.074715796096 0.19478268742890595 
173.081683329905 0.17320350780342095 
174.089791879059 0.5425292815086087 
175.096745152003 0.1251826248397912 
176.100759075738 0.060364146458528556 
178.083551344245 0.0403923950709314 
181.085696213532 0.038852390781115666 
182.07993960028 0.7426713816547085 
183.057870226571 0.05480545070316057 
184.075197594782 0.03818780997874432 
185.081187378587 0.09157876426935119 
186.089487548028 0.12906928140312138 
187.09713250727 0.1527854573488587 
188.105558139461 1.0 
189.110672902936 0.05404605222674841 
196.077195698781 0.03057577150753618 
197.069934102497 0.6645373987541953 
198.079509595165 0.23755283154210086 
199.091059027318 0.034135824092941316 
200.10518836073 0.3888693786272238 
201.112534298048 0.18736869032277348 
202.119175400668 0.39462118202004604 
203.126993787764 0.06781048200650856 
206.090770872184 0.025553115918205166 
207.094444897816 0.02486285555803646 
208.099309076313 0.03385749153025111 
210.086870562235 0.025362414709145218 
211.091115532625 0.04015576294548594 
212.093475276858 0.7130747298207243 
213.102685924369 0.4035283734390081 
214.111224655373 0.03599941058986724 
220.100423837182 0.02715112721940825 
224.103090787383 0.028069811476663573 
225.103176367062 0.02905604055282363 
226.112344016755 0.02632103029418642 
233.102590918754 0.02721951813414113 
235.091911705995 0.02726876750429421 
236.099354133522 0.03983075226489964 
237.1034511715 0.0319998826454098 
248.109125434335 0.028582820254962737 
249.105411277825 0.031709561893777834 
250.11268719471 0.04523366749356967 
251.117005254602 0.06882987364382925 
252.124499557928 0.04127920239315458 
261.103870162221 0.03737252522464393 
262.116497559674 0.031152061660826773 
263.117911747081 0.039684179897993804 
264.125618129626 0.0495624695625267 
265.130655207496 0.02712006341543173 
275.118302336549 0.03391720172155228 
276.124759951706 0.042564026378850504 
277.130444094022 0.04939234935978016 
279.145216458829 0.07648244779698622 
290.141510201854 0.031061903007969564 
291.145420775519 0.07179330779955308 
293.16124370348 0.07817104629308935 
305.160344128702 0.04262029724555151 
307.176545139365 0.1125699732238141 
351.167015213153 0.11701714080265266 
365.182437484326 0.35367442935781107 
366.188406080053 0.08540549527153303 
368.170152095798 0.03869615973585987 
383.195585644272 0.12368096956868012 
END IONS

BEGIN IONS
TITLE=N-methyl-16-epi-pericyclivine-N-oxide.mgf
PEPMASS=353.1847699
CHARGE=1+
RETENTION_TIME=1312.397
PRECURSOR_MZ=353.1847699
SMILES=C/C=C(C1)\[C@@H]2C[C@@]([N@@+]1([O-])[C@H]([C@H]2C(OC)=O)C3)([H])C4=C3C5=CC=CC=C5N4C
INCHI=InChI=1S/C21H24N2O3/c1-4-12-11-23(25)17-10-15-13-7-5-6-8-16(13)22(2)20(15)18(23)9-14(12)19(17)21(24)26-3/h4-8,14,17-19H,9-11H2,1-3H3/b12-4-/t14-,17-,18-,19-,23-/m0/s1
COMPOUND_NAME=N-methyl-16-epi-pericyclivine-N-oxide.mgf
IONMODE=positive
SKELETON=Sarpagine
103.052122991257 0.039718802105969765 
104.047973970171 0.038031020851836156 
105.057776312527 0.03036545828058061 
106.063201827699 0.15745939277451887 
108.078363686268 0.029265781050771295 
115.051853031598 0.09869506180504753 
116.055988885046 0.027803749965131463 
117.059326469075 0.05824079897994902 
118.062553408045 0.030449412723822275 
122.057663675075 0.05464917750740788 
127.051827990446 0.045256753923497976 
128.055227827888 0.0806510203659262 
129.064693817413 0.050554504250362405 
130.063083199804 0.07912729671191927 
131.070608940789 0.051962131417048425 
132.077179250692 0.025811681095493005 
133.050074352639 0.04522784228082537 
134.057520005685 0.1714442413820719 
142.062656686849 0.050276770714386625 
143.070461265978 0.1821018665241331 
144.078139052596 0.5426164631693747 
145.084930089195 0.09405237209545073 
146.092240569215 0.03644340903630557 
150.052324153495 0.07125070524431823 
151.059122473062 0.02651760928699912 
154.062541585557 0.0560468795132262 
155.070048253057 0.04004191423329258 
156.077925118058 0.09217684962976361 
157.085690035744 0.14647989727503494 
158.093736151996 0.7872658296417674 
159.097823231195 0.04269800605947718 
164.06774900823 0.11792836787343305 
165.074672962448 0.06750952248548345 
166.083227838581 0.0692957904900222 
167.069651775704 0.09743448538985726 
168.071307704651 0.17583542769524807 
169.082402695922 0.03474113146833892 
170.09349713999 0.3186242989174106 
171.100623807508 0.1087042670993065 
172.072433383807 0.03419341196076367 
172.107641313225 0.23364341587503834 
173.11497356047 0.027960995827473172 
180.076282300553 0.03994499319276138 
181.075436275559 0.15543494790415335 
182.080347752854 1.0 
183.090875538665 0.29398380480097036 
194.092317311151 0.041742041199765684 
195.09269620793 0.026248055235364887 
205.080815836348 0.027270436788063172 
206.088306086456 0.032311671647243766 
208.101251131068 0.028782678569661043 
218.089780235564 0.037822115561986364 
219.095058607549 0.02786966275149215 
220.10135329282 0.0430787345104952 
221.105398425019 0.05861310499164505 
222.115506062721 0.025904012986393624 
231.095122177415 0.029794766029854668 
232.102390072927 0.027319117767477686 
233.105556423377 0.037729630699431395 
234.115714772335 0.030375185478130905 
245.107243545303 0.027912260858063 
246.11342722505 0.03530934917759739 
247.118629141795 0.0366289726513677 
249.134392943718 0.03183606477719679 
261.134132956924 0.0458602450965836 
263.149890519067 0.04047250244529689 
275.149000511615 0.03256350798197094 
277.165487422941 0.04887207700413114 
321.155051659365 0.054987802760148544 
335.170797663455 0.1329518040307131 
336.176469214325 0.0301487064446958 
353.184769950629 0.0625091850480106 
END IONS

BEGIN IONS
TITLE=Nmethyl10methoxyakuammidine.mgf
PEPMASS=397.2121243
CHARGE=1+
RETENTION_TIME=217.896
PRECURSOR_MZ=397.2121243
SMILES=COC(C1([C@@H]2CC3=C(N(C4=CC=C(C=C34)OC)C)[C@]5([H])C[C@H]1/C(CN25)=C/C)CO)=O
INCHI=InChI=1S/C23H28N2O4/c1-5-13-11-25-19-10-17(13)23(12-26,22(27)29-4)20(25)9-16-15-8-14(28-3)6-7-18(15)24(2)21(16)19/h5-8,17,19-20,26H,9-12H2,1-4H3/b13-5+/t17-,19-,20-,23?/m0/s1
COMPOUND_NAME=Nmethyl10methoxyakuammidine.mgf
IONMODE=positive
SKELETON=Sarpagine
106.065153158519 0.10290591976643716 
107.07259133055 0.047606411902844654 
108.080838491062 0.03645525914588458 
115.054174932902 0.039157656344865996 
117.057344273735 0.03728730393112545 
117.069976912081 0.02979989992284411 
130.065072271019 0.03129220845392212 
131.073202904086 0.05656828410494456 
132.080976136205 0.07769686669443099 
134.059949445804 0.07277381849155239 
136.07544982642 0.039516860831382554 
138.054940650632 0.03852787816733779 
143.072946060998 0.024541239295440834 
144.057131323954 0.03676979142790348 
144.081009726072 0.09945148812675601 
145.088657469087 0.06602862960234317 
146.096446103536 0.027716562426765415 
151.06275661629 0.09499848285771946 
154.064663715554 0.033360060537259616 
156.080560724527 0.08698035022437435 
157.08861933278 0.21666918334357604 
157.096536886721 0.04152131549223488 
158.096284613536 0.14258848165028543 
158.104502748689 0.0274140302692007 
159.06792935957 0.025293921697189817 
159.080199212511 0.027661217418905676 
159.104308777635 0.059477172503501693 
160.075967188985 0.10791848364554875 
161.08356940293 0.05095928207057523 
164.070508555793 0.03549621970389607 
166.086402628311 0.7552725332736563 
166.094732817994 0.08594255639758776 
166.115563273823 0.026295361198322608 
168.089696832701 0.04868268376903243 
169.088560669686 0.31004079871047185 
169.096870758184 0.10642343483866769 
170.060061388812 0.035072190567913594 
172.075698864118 0.07629370276057097 
173.083900309012 0.0992073752239676 
174.091391687174 0.1745435799476893 
174.100620430329 0.0324202601149717 
175.099300727627 0.05785609955421992 
181.088141433425 0.034024206340484406 
182.060472504813 0.025972094287181474 
184.075686598388 0.08633016270102135 
185.083475855482 0.37282137369455115 
185.092625614805 0.06390032018410086 
186.091446535462 0.3084114763892413 
186.100420153668 0.055121275758235735 
187.099113193711 0.2189116138311996 
187.107956129067 0.04630700737048557 
188.107145022458 0.20276822090733385 
188.11561190822 0.040616881754530085 
197.0832386383 0.05087975698320753 
198.091402390381 0.04962388287376149 
199.099182575712 0.08742573067598894 
200.107018290326 1.0 
200.115544284481 0.2795567147175932 
200.139416594584 0.07883111252057705 
208.112056717591 0.02511485323682234 
212.106842285464 0.037040507841613196 
214.122714364752 0.056805346506448064 
222.091149816357 0.025775302522166973 
224.107132835595 0.03580250261396622 
236.10692312941 0.09602582938300691 
250.121725967545 0.04684804057435039 
251.130206894912 0.024674505187541905 
263.117888259363 0.0576898276109619 
277.134207676635 0.03727585757073979 
291.149518408073 0.045522917411798085 
END IONS

BEGIN IONS
TITLE=normacusineB.mgf
PEPMASS=295.1803723
CHARGE=1+
RETENTION_TIME=122.621
PRECURSOR_MZ=295.1803723
SMILES=C/C=C1C(C2CO)CC(N(C\1)C2C3)C4=C3C5=CC=CC=C5N4
INCHI=InChI=1S/C19H22N2O/c1-2-11-9-21-17-8-14-12-5-3-4-6-16(12)20-19(14)18(21)7-13(11)15(17)10-22/h2-6,13,15,17-18,20,22H,7-10H2,1H3/b11-2-
COMPOUND_NAME=normacusineB.mgf
IONMODE=positive
SKELETON=Sarpagine
103.054086841691 0.056811947362986934 
105.057320969861 0.028629464444040704 
105.07039645622 0.0382151289834862 
106.065224537115 0.16870042372948033 
106.072064053381 0.025948422582976572 
107.07290492675 0.24888366581982097 
107.07971108214 0.03756825976056325 
108.080868197175 0.30812808451204415 
108.088299341822 0.04902563522807036 
115.054261969199 0.07748538758471533 
117.057398717415 0.12555111643101327 
117.069960162977 0.06879211255781087 
118.065127366932 0.07751000739683736 
119.07318005501 0.07525786348205242 
120.08099274941 1.0 
120.088195834102 0.14041572138409825 
120.105926828464 0.038993606474453796 
121.088888837989 0.28567140249047435 
121.096416727749 0.0527783651645878 
122.096580371675 0.22047501712432604 
122.103965677142 0.03885810067469663 
123.068016345328 0.2018440892902728 
123.075512983929 0.030979833420462937 
127.054171960557 0.08244207959219714 
128.049701244154 0.04050824539779577 
128.062251289621 0.19142472819255354 
128.070120106728 0.03615974989950541 
129.07002927079 0.33281204855356183 
129.077738719452 0.051487204899657316 
130.065257247536 0.2740416278174343 
130.072887548404 0.052807632964839056 
131.073142595279 0.18786090750273643 
131.080775928253 0.031612964449306 
132.0814107233 0.10686161668405023 
134.09649924997 0.20467076811271953 
134.10382791196 0.030516353958336837 
136.076023388422 0.03327265933551442 
138.091571467846 0.3693930465855504 
138.099679142335 0.05154977117736565 
143.073318151653 0.2188244971730186 
143.081988505583 0.03906027605418247 
144.08110608521 0.41206411948040816 
144.088999809138 0.05969229592336339 
146.09662721285 0.13768393898595668 
154.065305539613 0.0677153165370697 
155.073459477118 0.05993508067830124 
156.080937241949 0.36112906894140495 
156.089232625141 0.06024359089037902 
157.088990628785 0.06299680971293953 
158.09684892034 0.06634923167182685 
167.073234405995 0.10939188943017239 
168.081115554403 0.07522492812866793 
180.080748441759 0.076104269382867 
192.080492165887 0.031654517947346764 
193.088585102782 0.04743392927238772 
194.096474823116 0.04839059174577829 
204.080856529563 0.08814424111244754 
205.088866454492 0.03201010114336877 
206.096827678891 0.05499987351178137 
207.105329639538 0.03298235374360947 
217.08912712714 0.05901611048364617 
218.096447820582 0.06675203310142212 
230.097101681117 0.07870151431211167 
231.104828523865 0.02594859204087712 
232.099657537008 0.05544064561523446 
232.111659331293 0.03201426496606787 
233.106844053622 0.041442442595228376 
244.112291447879 0.04396967720327649 
246.114870776087 0.044161987712123464 
247.123322142904 0.09235662560419307 
261.138184858541 0.05079148338483441 
END IONS

BEGIN IONS
TITLE=Panarine.mgf
PEPMASS=323.1762021
CHARGE=1+
RETENTION_TIME=938.207
PRECURSOR_MZ=323.1762021
SMILES=[H][C@]([N+](C/C1=C/C)(C)[C@H]2C3)(C[C@@H]1C2(C([O-])=O)[H])C4=C3C5=C(N4)C=CC=C5
INCHI=InChI=1S/C20H22N2O2/c1-3-11-10-22(2)16-9-14-12-6-4-5-7-15(12)21-19(14)17(22)8-13(11)18(16)20(23)24/h3-7,13,16-18,21H,8-10H2,1-2H3/b11-3-/t13-,16-,17-,18?,22?/m0/s1
COMPOUND_NAME=Panarine.mgf
IONMODE=positive
SKELETON=Sarpagine
103.054307427331 0.03950079275370818 
105.067439307771 0.03311494939354182 
106.065770548244 0.08704274815075298 
107.073018928039 0.42169829036613177 
107.165471144191 0.02652042200876528 
108.078899111671 0.08872246718418836 
115.054678384645 0.06033441101543398 
116.056399762638 0.02615972912783966 
117.063582559735 0.08589680673428872 
118.065894549109 0.03597339336906882 
120.081365305 0.21582685302077376 
121.088002235421 0.09945126496562123 
122.09609007918 0.8562030093095897 
122.194228222494 0.05863407128199146 
123.100264906773 0.09177264767882687 
127.054334805627 0.05173534622980987 
128.05993128822 0.10377075116721841 
129.069434404259 0.11077783016461204 
130.066345933449 0.13935962352614392 
131.073219187205 0.07145332957615994 
132.08099142942 0.15040154261466665 
133.086065803125 0.034248886768010134 
134.096720887223 0.09891567721533324 
135.101861685917 0.034071250234735125 
136.112398603738 0.11923940950275531 
143.073671801711 0.08779836766200005 
144.080805129433 0.41263841433168286 
145.085190478632 0.06319743854491533 
146.096137027539 0.047353712117667555 
148.112075133352 0.20130556130117042 
149.115228872836 0.02853600016428812 
151.063583815648 0.23654663400946221 
152.065010085436 0.03739475027464274 
154.066386876313 0.034704489913958324 
156.08120266565 0.10995861251905138 
158.096234347077 0.036904839280274056 
164.070787566376 0.02974353904139997 
166.086044440041 1.0 
166.200200243794 0.06461316392461461 
167.074902148573 0.0360930844650548 
167.088598473164 0.1254055069124863 
168.081742930569 0.04813486403569964 
174.091612467846 0.03266760299605645 
180.082252819443 0.04119728992344301 
192.081349277091 0.024948114804371164 
193.089266407091 0.02789449315102715 
194.09649156694 0.03407657477893614 
204.081593103356 0.05340743306370462 
205.087430774574 0.030923777720709766 
206.096102920293 0.04564002397421015 
207.102046947811 0.027010205976234537 
217.089000607579 0.04043599654402149 
218.095146999475 0.04076077256913386 
219.100394031549 0.024983946975584793 
231.100279295338 0.02875239048746361 
232.107485630028 0.025730314694323526 
233.110947486894 0.02564839292976746 
277.169527754474 0.024836161763675344 
279.186539122849 0.03306051836713695 
305.166307359369 0.11650917801105092 
306.169174973946 0.03369280534461445 
END IONS

BEGIN IONS
TITLE=Pericyclivine.mgf
PEPMASS=323.1749256
CHARGE=1+
RETENTION_TIME=976.655
PRECURSOR_MZ=323.1749256
SMILES=C/C=C(C1)\[C@]2([H])C[C@@](N1[C@@]([C@@H]2C(OC)=O)([H])C3)([H])C4=C3C5=CC=CC=C5N4
INCHI=InChI=1S/C20H22N2O2/c1-3-11-10-22-16-9-14-12-6-4-5-7-15(12)21-19(14)17(22)8-13(11)18(16)20(23)24-2/h3-7,13,16-18,21H,8-10H2,1-2H3/b11-3-/t13-,16-,17-,18?/m0/s1
COMPOUND_NAME=Pericyclivine.mgf
IONMODE=positive
SKELETON=Sarpagine
101.038948946178 0.029076221512685275 
102.045679407374 0.026408423626182113 
103.05423105511 0.10559704138406978 
104.054092494914 0.03766154088920271 
105.068128811519 0.05826719625598859 
106.065298797708 0.48477267574771865 
107.072422944381 0.396930425985165 
108.080299267991 0.32816487712216075 
109.083350752866 0.039973823479769376 
115.054117965795 0.28319639181486883 
116.057268951062 0.10167116258305628 
117.059428894226 0.33050068961797857 
118.063976392746 0.12965067678439277 
120.080051522176 0.08985143002100314 
121.087513517409 0.08766602515382826 
122.095432624879 0.09238934402898694 
127.054071206323 0.25112620957794984 
128.060204246196 0.7320127556854783 
129.0689990566 0.7892421592782831 
130.066296358924 0.6722671702892001 
131.071561169451 0.21347876066510935 
132.079713695198 0.18985907024915133 
133.082342736122 0.03374976405177778 
134.060798912293 0.058630741281900454 
136.07556535282 0.06515647486864301 
139.0539235407 0.036988242038432845 
139.073992396784 0.04520906760253636 
140.05461233216 0.0428286321794425 
141.065151272545 0.04883474036707052 
142.065840336487 0.09246013348926724 
143.073129334823 0.4523485462093982 
144.080258579776 0.7635654997258507 
145.083247153155 0.12280233581249583 
146.0938947701 0.038150405631197704 
148.075899788309 0.032029833842515426 
151.062022831945 0.34622817416524265 
152.063329604377 0.14766104152788584 
153.066812391388 0.06052613707068659 
154.065421303755 0.30509698096135046 
155.071618755474 0.1963256994304285 
156.080414097984 0.9233046932972728 
157.085787407625 0.2862111359571109 
158.095408475055 0.3150525477913748 
159.097428069743 0.056964392541938864 
160.076581976726 0.0762229408586418 
164.067429548147 0.035036997679967326 
165.0699177914 0.11064738199842401 
166.068972608186 0.09898309062708795 
166.085978795179 1.0 
167.073783814531 0.7281173379247943 
167.085783892187 0.14182540530661286 
168.080499888643 0.8575352124632595 
169.0830607497 0.22067725379239955 
170.095073102118 0.24494781174877334 
171.098334967131 0.05418714464200289 
177.066781636587 0.025385452006883198 
178.070747128785 0.08007521380154782 
179.075971983591 0.08750539060541568 
180.08070743907 0.2353994241365294 
180.097098475855 0.11570271622594702 
181.087143085446 0.12780174157252874 
182.090523581188 0.05978305746949652 
183.092713731916 0.04003444594363809 
189.069039138642 0.029340683266102657 
190.069275131492 0.04173572001410197 
191.073078780559 0.19123540991072419 
192.079838562942 0.2209289318961049 
192.09184961108 0.06714429244995651 
193.08740381563 0.2769377965582021 
194.0953814114 0.3610362346558752 
195.098007160929 0.13122686084497928 
196.10176024223 0.040150727219885766 
202.076803101717 0.0357705994033631 
203.078421547807 0.03873906273875713 
204.080565229945 0.2688111904873667 
205.085682963651 0.19085909122232667 
206.093956784784 0.40919803571232394 
207.100873488903 0.2979333432539782 
208.106632162086 0.11235439872403197 
209.109639495606 0.029807476237891737 
216.080675503878 0.09076936598091043 
217.087757635336 0.3039746164655406 
218.092411496848 0.211941227170449 
219.093583987794 0.2513606097800913 
220.101685765906 0.16300431747794572 
221.108006259656 0.06934490786284342 
222.124892586503 0.2011853838939996 
223.128191712223 0.06003296783414014 
229.087944885185 0.03226518283115895 
230.095873386701 0.19776685619093182 
231.102050757231 0.23647794470871758 
232.106600478678 0.16892204869971308 
233.107556220786 0.1576811258400506 
234.115027336625 0.12140652105956483 
235.121842857227 0.11158628114641374 
236.127048997527 0.037879302372265874 
244.10682184128 0.03241915589960441 
245.111316512722 0.02507709639371244 
246.126018733195 0.1573873016412009 
247.124757042771 0.15808490940087627 
248.123662849126 0.08305667051840697 
249.136162604962 0.0888604275132106 
261.111992652742 0.03319404481667947 
262.114169735795 0.05116875516214762 
263.152392978467 0.1540765361103149 
264.156948743821 0.06078631430400518 
274.12333220784 0.03814606118774088 
276.122037877615 0.024764176618105444 
279.112972288266 0.03357314994122517 
289.133062725812 0.03010086099878256 
291.148023251692 0.08219558185081281 
292.151678927074 0.026405047943680034 
306.148382088709 0.032099155180524114 
323.174925632028 0.07739129653173592 
324.178111251836 0.027634225825169608 
END IONS

BEGIN IONS
TITLE=Polyneuridine.mgf
PEPMASS=353.1614444
CHARGE=1+
RETENTION_TIME=682.35
PRECURSOR_MZ=353.1614444
SMILES=C/C=C(C1)\[C@@H]2CC(N1[C@H](C2(C(OC)=O)CO)C3)C4=C3C5=C(N4)C=CC=C5
INCHI=InChI=1S/C21H24N2O3/c1-3-12-10-23-17-9-15(12)21(11-24,20(25)26-2)18(23)8-14-13-6-4-5-7-16(13)22-19(14)17/h3-7,15,17-18,22,24H,8-11H2,1-2H3/b12-3-/t15-,17?,18-,21?/m0/s1
COMPOUND_NAME=Polyneuridine.mgf
IONMODE=positive
SKELETON=Sarpagine
103.046903267782 0.030989199309480547 
106.057514159154 0.09611623073012869 
108.073354310392 0.13162679738891042 
115.046065902786 0.10260228193526631 
116.044052099748 0.02904031385417558 
117.051513518381 0.07969037349452164 
118.052687588022 0.03412233065413129 
118.060393895583 0.04054463966661801 
120.070156913135 0.03685852907278135 
121.049698778107 0.025862701380535605 
122.08607984292 0.02918331982827607 
127.046225476623 0.03161205590590414 
128.048463624959 0.048607204151169404 
129.060113166001 0.04250499519354173 
130.056307860854 0.33944577258154623 
131.059934713466 0.06077270736973491 
132.070296812667 0.042503475245481676 
134.050974184401 0.02784363660155719 
136.065858368812 0.11149513566291376 
142.05648144584 0.03479039312298997 
143.063331581335 0.10913891419339578 
144.071223732794 0.18844487168517948 
151.050973985242 0.06525147087688923 
152.057456278133 0.061152191090688555 
154.054776702353 0.07203310668324181 
155.059114445261 0.04235113819951583 
156.068245747421 0.11778253670271929 
160.06247976441 0.03655085534825432 
164.059320508853 0.1202993593066621 
165.065398500732 0.06475134756984463 
166.072118175795 0.0755774041098993 
167.062430787271 0.14799437317241343 
168.069299680565 0.18237645389071472 
169.070304708707 0.09423330699427755 
170.083725266708 0.16767221464485055 
171.086303105204 0.06246900966827888 
180.06848377956 0.09232063857950283 
182.07699502141 0.05848282005727486 
183.073202022439 0.027129502594480878 
183.082481402229 0.024775077884755727 
191.060108781029 0.03835513938728981 
193.072215399582 0.050254691958870806 
194.080020507767 0.05367716705839721 
195.073881438553 0.0257089853088464 
204.065309493468 0.08765394507048634 
205.070199049578 0.05578566719177013 
206.08060865514 0.05676064844406641 
207.085709686283 0.028488567675435724 
217.073504772238 0.09046308086425656 
218.077890738181 0.07346402202414805 
219.078299562631 0.08063561006789437 
220.078768801642 0.04602922125310155 
222.079140457616 0.02547174255502262 
230.079770162752 0.04219333034712191 
231.084122686166 0.033278950732544506 
232.092630625436 0.04225198926977065 
233.088774844657 0.06399298408080889 
234.104548980426 0.027853370308670244 
235.105849551457 0.06581757603515005 
238.067917135819 0.030340347574877573 
244.093006560566 0.037237816509051745 
245.088815544678 0.02516000221449386 
247.081194927775 0.024690982480333783 
249.116107363512 0.030130413556728786 
258.114469985843 0.02455862620853486 
261.085963429924 0.043375558027288603 
275.134958132179 0.028430779451510135 
279.090877156109 0.034012169650361614 
293.105526042558 0.02716645947727879 
294.117353313861 0.13628312304029877 
321.139665623107 0.11315157707193582 
353.163243142977 1.0 
354.166860819879 0.3158920635559738 
355.169489253345 0.05141999385981247 
END IONS

BEGIN IONS
TITLE=polyneuridine_aldehyde1.mgf
PEPMASS=351.1703772
CHARGE=1+
RETENTION_TIME=228.669
PRECURSOR_MZ=351.1703772
SMILES=O=CC1([C@@H](N2C/C3=C/C)CC4=C(C2C[C@H]13)NC5=C4C=CC=C5)C(OC)=O
INCHI=InChI=1S/C21H22N2O3/c1-3-12-10-23-17-9-15(12)21(11-24,20(25)26-2)18(23)8-14-13-6-4-5-7-16(13)22-19(14)17/h3-7,11,15,17-18,22H,8-10H2,1-2H3/b12-3-/t15-,17?,18-,21?/m0/s1
COMPOUND_NAME=polyneuridine_aldehyde1.mgf
IONMODE=positive
SKELETON=Sarpagine
103.054045770643 0.0405483166838471 
104.04864647159 0.02971861335643788 
105.069749637054 0.041915286906659285 
106.064985274193 0.2569346569662696 
106.071883646343 0.052456313494613084 
107.049479200848 0.03227819643385356 
107.072696829098 0.10600303539883882 
107.08026352586 0.024559199627803445 
108.081113705972 0.05129222356706035 
115.054272794911 0.08129795254493948 
117.056872262927 0.10580566780156694 
117.069282901599 0.030343987475930728 
118.065056669041 0.04979172896909783 
120.08087711002 0.04380963857028259 
127.054617331241 0.040784744754765435 
128.049341889801 0.02649319718432852 
128.061997929522 0.09425745990813146 
129.069864926907 0.22106065284979654 
129.077466727901 0.04159159884340669 
130.064834776297 0.2666368428079374 
130.072456255783 0.0396801724515033 
131.07259202688 0.0476148799914919 
132.080436139305 0.1016880889459998 
134.059935420174 0.05594632290847995 
136.075347011869 0.0664709252339929 
137.047024296027 0.027178300329509734 
138.054859650044 0.03286099756416805 
139.054790534146 0.02552912550234257 
142.064624936388 0.037867259110953046 
143.072972389484 0.15302831689199617 
143.080942733385 0.030752512546266417 
144.080748530879 0.194498880304366 
144.087037864354 0.0453750659206474 
151.062748997906 0.5427264178081935 
151.070859291 0.08283313323377954 
152.071991747764 0.028781926286284 
154.064800456049 0.06842973806228503 
155.072859892197 0.032483255789674474 
156.080573009251 0.3163382871185485 
156.089343442788 0.04739370534450379 
157.088812990204 0.07873723115230512 
158.096021347715 0.12138596707764723 
158.103965586914 0.025709776127545946 
160.07551288511 0.07258478375019249 
164.07073219239 0.13553491627447642 
164.079641704638 0.024885635909226843 
165.069331593429 0.03139518905708309 
165.077858746638 0.037240990600931244 
166.06511715735 0.0697724459092935 
166.086148661842 1.0 
166.094353894995 0.16150253706069773 
166.111613923042 0.038849755237835515 
167.072771568461 0.21275420408268136 
168.080326343343 0.19870902044885722 
168.088392894532 0.04434157327196838 
169.07551544814 0.06092549255306053 
170.096300349225 0.030517889518051972 
180.081084840637 0.21872564310337902 
180.090900109186 0.030406741167771565 
181.076509959873 0.026528907758902882 
182.09580511873 0.03927459073909018 
190.06507223502 0.03862321424767365 
191.072389457937 0.0702641655604682 
192.080410300512 0.125814371034496 
192.089357486224 0.024745200334534583 
193.088341165135 0.06989169255927248 
194.059854924389 0.0524493535101332 
194.096280444903 0.09230172053092972 
204.081074345249 0.2198057416294397 
204.090274385945 0.03634591708284284 
205.088518113904 0.18531527835303352 
205.098359207356 0.03550805203531574 
206.096290044322 0.10007382787275393 
216.080802662814 0.04859004211603692 
217.088315843545 0.3191897667413239 
217.099539323128 0.03456194947213884 
218.096196471816 0.11051809766712054 
219.104102837985 0.042395119294621836 
220.075408086562 0.07099764710244301 
220.101740372579 0.027562514239103764 
220.112300238066 0.04695434819338805 
222.054586898004 0.0346016929349165 
228.081076876992 0.05366299267299017 
229.088244493078 0.029969400460757478 
230.096348125799 0.2927658929538125 
230.106393434224 0.056473525471185254 
231.103854420116 0.2525100257112885 
231.113553490881 0.03701633596170317 
232.111726725815 0.10202174539823877 
233.082260652949 0.02984691774322828 
234.127720392847 0.029908337980098672 
238.085227042869 0.054505410981391965 
241.088250782409 0.21662203657927173 
241.097041438852 0.03719340902479072 
242.096027778147 0.05993553233067277 
243.103473013553 0.038698798378193525 
244.111161185209 0.05037166804971965 
245.106431163765 0.04498746958868931 
247.122589609728 0.08466084467217254 
254.096070712776 0.09806074993182305 
255.104730861275 0.04563866720200005 
256.111362867619 0.08950531910309216 
257.106975028162 0.09636200960770568 
257.116871453171 0.025664780153116407 
258.0920442432 0.027664816253970485 
258.115457869664 0.0649878305972301 
259.125116626122 0.029518481279349224 
273.137678818733 0.05265403884809655 
END IONS

BEGIN IONS
TITLE=Vellosimine.mgf
PEPMASS=293.1650625
CHARGE=1+
RETENTION_TIME=931.737
PRECURSOR_MZ=293.1650625
SMILES=C/C=C(C1)\[C@@H]2C[C@@](N1[C@H](C2(C=O)[H])C3)([H])C4=C3C5=C(N4)C=CC=C5
INCHI=InChI=1S/C19H20N2O/c1-2-11-9-21-17-8-14-12-5-3-4-6-16(12)20-19(14)18(21)7-13(11)15(17)10-22/h2-6,10,13,15,17-18,20H,7-9H2,1H3/b11-2-/t13-,15?,17-,18-/m0/s1
COMPOUND_NAME=Vellosimine.mgf
IONMODE=positive
SKELETON=Sarpagine
102.047215213291 0.025424597363539168 
103.054059882664 0.07323320848296613 
104.054373253832 0.036422603383848326 
106.064568061613 0.21137829155280377 
107.072655004285 0.10212641974600686 
108.080382466117 0.39409848351006765 
109.082049442988 0.04305177418092157 
110.095088041772 0.030883508549713227 
115.053030058527 0.18927655796968534 
116.056598372021 0.07829724506975977 
117.059992600424 0.19600088096600424 
118.065176547723 0.14115990390330624 
119.071761896761 0.041736565584672314 
120.079007013895 0.05534134832493478 
121.052102648996 0.32505340540163713 
122.056306861601 0.035671210219318086 
122.095301685378 0.08313028809752805 
127.053537057836 0.13329767585482724 
128.058197895584 0.3390184312761484 
129.066957420551 0.18214154852403758 
130.064180262163 0.6844654688171344 
131.069633721344 0.10415269777567326 
132.078685589843 0.034518336615873384 
134.058529060531 0.07493930006491994 
136.074798069739 1.0 
137.080237411488 0.2438036873796279 
142.062746483238 0.030422266345482313 
142.069814741684 0.029310138122482662 
143.07439293584 0.31159449927525507 
144.079507119284 0.40800180803233543 
145.084871108133 0.09395190414730066 
146.094733271562 0.12326084759667609 
152.061291176695 0.05676515973411917 
154.063842897652 0.23208408474758033 
154.090944488688 0.05530168517777509 
155.071002385662 0.1963976529873785 
156.078706641958 0.22246682568468473 
157.08518088356 0.1208890419944463 
158.096392213402 0.162960017664296 
163.100739864067 0.028650285027920917 
165.068537086398 0.044892189185060064 
166.063931186551 0.03253464516873492 
167.071381846161 0.29339358421187484 
168.078639869144 0.2720737290399874 
168.13395330116 0.026547435479570596 
169.081708156967 0.0879509767998699 
170.094753512405 0.2926517624871801 
171.097215362256 0.06304564058863933 
172.109714581017 0.057911891312294995 
173.112839888902 0.028046426964643437 
178.067106237504 0.0404537958770285 
179.072117835891 0.04467016270182772 
180.079300253144 0.24985126319815115 
181.083740943084 0.08468211224389546 
182.09362513057 0.061899218219973615 
183.092016291407 0.03243253575551197 
188.105248519045 0.14038156734646376 
191.071637057231 0.08966342123175858 
192.078480948396 0.09689822101930352 
193.086499423503 0.07679748056091167 
194.093504444361 0.11361577373284888 
195.09730861223 0.04737292086471282 
196.105103634216 0.03266535646164249 
204.078714910103 0.1537652512320242 
205.086240432219 0.1049707255896309 
206.089537982729 0.13747817437645443 
207.093265842957 0.1141010921139347 
208.101408475746 0.0915947438318676 
216.081054564192 0.03887095239480657 
217.086922199259 0.10321407825277512 
218.092946377148 0.06688664112315014 
219.089054496068 0.04629684365959574 
220.107596367371 0.10108410259740205 
221.109979922153 0.05879028525561155 
222.122148280236 0.03422454541634146 
230.090234114013 0.03673521419856338 
231.097967611176 0.04097294458951523 
232.107372816809 0.028025288278134518 
233.110357355003 0.041599894981206385 
237.138225553321 0.1322947407538275 
243.094768538826 0.03725762366588394 
245.107023198797 0.03884637023875331 
247.121724071718 0.02521936657869656 
249.139297677611 0.029719798558437153 
259.122171026914 0.03088241226145013 
260.12504079958 0.03324356419055907 
265.168343363963 0.44579943799766036 
266.172444623872 0.07761892373445818 
275.153667468889 0.024853206298822598 
295.177711669722 0.030130892602120304 
END IONS

BEGIN IONS
TITLE=venecurine.mgf
PEPMASS=325.1906314
CHARGE=1+
RETENTION_TIME=181.622
PRECURSOR_MZ=325.1906314
SMILES=CC1(O)OCC2C3CC4c5[nH]c6ccccc6c5CC2[N+]4(C)CC13
INCHI=InChI=1S/C20H25N2O2/c1-20(23)15-9-22(2)17-8-13-11-5-3-4-6-16(11)21-19(13)18(22)7-12(15)14(17)10-24-20/h3-6,12,14-15,17-18,21,23H,7-10H2,1-2H3/q+1
COMPOUND_NAME=venecurine.mgf
IONMODE=positive
SKELETON=Sarpagine
103.054151472118 0.027786697414213777 
105.069822056426 0.03066693159386219 
106.065066371755 0.04567794111798435 
107.072936111801 0.2651417570922736 
107.080038363721 0.034342487104526725 
108.080668408226 0.9752885423301683 
108.087656636031 0.10827617618521253 
108.104987883797 0.027246965594605838 
110.096359275599 0.19274425645625895 
110.103380346551 0.02624794281612769 
115.05417292356 0.03243564257680942 
117.057185535431 0.06517862384736153 
117.069622782858 0.060220455620065366 
118.064888688551 0.07294182186160701 
119.072922412015 0.03156756937609961 
120.080773668679 0.26632202984313325 
120.08790118103 0.03501587353692957 
121.088560264196 0.17529605456279754 
121.095936809731 0.02600112809745449 
122.096328625338 0.43484053550224333 
122.103538563841 0.05206734748116103 
124.075433691162 0.039676614167313204 
127.05407032869 0.03384241861064099 
128.06166750138 0.037563782958342465 
129.069874428964 0.10227027245415803 
130.065047109997 0.2396627575701526 
130.07273649106 0.0326936782984225 
131.073004670391 0.10376918381170686 
132.080779994503 0.13918579392620212 
134.096471482299 0.900944268703092 
134.103767414655 0.08728242143877563 
134.123385753204 0.03709622538717984 
138.091383908462 0.03601815687688082 
143.072836755141 0.10732549998958389 
144.080829129356 1.0 
144.08894433917 0.1339304190500119 
144.108726808208 0.041032698412898826 
150.09134931824 0.17575205970899252 
152.107132753308 0.03571479524747125 
154.065082436365 0.08024238628910228 
155.073071744445 0.06731209791406133 
156.080722955658 0.17587755818350428 
158.096319046467 0.08201432626951997 
164.106831323877 0.03832640082621934 
167.072880330552 0.21852080983130306 
167.082092862875 0.03184700549150518 
168.080711351601 0.26131708376391893 
168.089402502678 0.030455642160164588 
168.101994889581 0.1382999186280012 
176.106890582955 0.03018581097076353 
180.080642681581 0.25237579091499623 
180.089387066276 0.035617893759354785 
181.088589538376 0.13648779767221794 
182.096498382325 0.1386332029319171 
183.091657026634 0.03761103427030023 
184.112154083716 0.03596797011267718 
192.080498364442 0.034038904527098644 
193.08859612532 0.1281623185148758 
194.096451945159 0.2214702764943504 
194.105823399987 0.02917534308492674 
196.111856574195 0.1555603462697346 
204.080753344744 0.0531125894287105 
205.088703744886 0.05365672127028698 
206.096139305143 0.10475101367794491 
207.104321889718 0.05423270119053106 
208.111771341866 0.11530456421791031 
209.107251340248 0.03534912627684282 
211.122938848982 0.036979596397410996 
217.088017659095 0.02525574101862087 
218.09627097592 0.07065175877779133 
219.103845225529 0.08808976549839877 
220.112113155096 0.041015496031457946 
222.127485578817 0.062308761598981875 
223.123273121419 0.03523066657492063 
232.111935532439 0.027062467686352294 
234.12749420838 0.049141901024125634 
235.122861978496 0.050996538691470084 
237.138454976588 0.028348549286874487 
249.138614235027 0.04846336965929185 
263.154302141614 0.05720612493158502 
265.169843657172 0.06289272721189483 
291.148712574977 0.04095763921461186 
END IONS

BEGIN IONS
TITLE=Voachalotine.mgf
PEPMASS=367.2032995
CHARGE=1+
RETENTION_TIME=854.974
PRECURSOR_MZ=367.2032995
SMILES=C/C=C(C1)\[C@@H]2CC(N1[C@H](C2(C(OC)=O)CO)C3)C4=C3C5=C(N4C)C=CC=C5
INCHI=InChI=1S/C22H26N2O3/c1-4-13-11-24-18-10-16(13)22(12-25,21(26)27-3)19(24)9-15-14-7-5-6-8-17(14)23(2)20(15)18/h4-8,16,18-19,25H,9-12H2,1-3H3/b13-4-/t16-,18?,19-,22?/m0/s1
COMPOUND_NAME=Voachalotine.mgf
IONMODE=positive
SKELETON=Sarpagine
103.054558963418 0.02526910311066658 
106.06569363581 0.128690852854429 
107.072723792492 0.05893232411758266 
108.080466916707 0.038664912752682176 
115.054576787795 0.08550822518539059 
116.057397980702 0.026853160318631376 
117.061807790151 0.0671885275980126 
118.065308458331 0.034770750568454085 
120.080623555604 0.024911443298458614 
127.054425273056 0.07237724115051916 
128.061311254035 0.19866563896549885 
129.069002649249 0.13033979607724044 
130.067037082483 0.08480682463996074 
131.073362778567 0.05907196603964792 
132.080522579517 0.04794159928567067 
134.061518424909 0.04989347228205226 
136.075888041944 0.03501873023889651 
138.089997306846 0.03172054670621226 
142.066570453813 0.03628776512957122 
143.073961592921 0.09801965065862552 
144.081016634305 0.251312437109695 
145.086935451085 0.07685185643652873 
146.095477537169 0.04178272042622091 
151.063230361409 0.11498380600434958 
152.065975400156 0.03467233772857136 
154.065948676622 0.16265604635438413 
155.072835794621 0.15277416046772507 
156.080153290877 0.0908074441214998 
157.088718795121 0.17665676926623347 
158.096425830711 0.30073452025115965 
159.099937837324 0.049841878162395485 
160.078389001101 0.026034399380738527 
166.086269810188 0.4582369863488495 
167.075623787533 0.17377865583509247 
167.085874818508 0.047987955870467836 
168.080694500639 0.15615941251583776 
169.087836845751 0.10006622840823504 
170.096627797228 1.0 
170.21355865155 0.05634740260633379 
171.102042878987 0.3154341679829274 
172.111800144547 0.3032812165605131 
173.115346019589 0.04873745151016506 
180.082123342006 0.036457974009283425 
181.088051364336 0.04565958554154295 
182.096089864757 0.1135538269489874 
183.098163815135 0.05074015940371326 
184.11210677748 0.10375107625289591 
193.088618239466 0.02529581893974029 
194.096616948601 0.05103521086854503 
195.100144243548 0.03407431247727146 
196.102840916092 0.03912735627175544 
204.081688850499 0.026463789213428995 
205.08809374398 0.03132167981827074 
206.095833884266 0.04091613947467305 
207.102996625744 0.02867117908903204 
208.111390539906 0.033578903297611366 
217.08861846616 0.026113545574530616 
218.095469187321 0.0440063070482805 
219.100799019923 0.028697322750432016 
220.110508209155 0.0579046779658779 
221.116150274704 0.03796027725925083 
231.103104730443 0.040007603228126 
232.109483359641 0.03221590086974988 
233.111024452009 0.035221728727603624 
236.140504286654 0.0259348972216308 
246.123394799182 0.030269089356635963 
247.125173622627 0.026945510381817393 
261.13864885647 0.02643410251374165 
305.165801699919 0.047229778686644124 
367.203299469842 0.04825881124463524 
END IONS

BEGIN IONS
TITLE=Ervitsine.mgf
PEPMASS=293.1652481
CHARGE=1+
RETENTION_TIME=854.239
PRECURSOR_MZ=293.1652481
SMILES=CN1[C@@](C2=C)([H])C3=C(C(CC2/C(C1)=C\C)=O)NC4=CC=CC=C34
INCHI=InChI=1S/C19H20N2O/c1-4-12-10-21(3)19-11(2)14(12)9-16(22)18-17(19)13-7-5-6-8-15(13)20-18/h4-8,14,19-20H,2,9-10H2,1,3H3/b12-4-/t14-,19-/m1/s1
COMPOUND_NAME=Ervitsine.mgf
IONMODE=positive
SKELETON=Ervitsinan
103.054267184695 0.10040329634955791 
115.053945130612 0.11201858985797811 
116.055218593041 0.03589959447307742 
117.058569738624 0.09275264957085526 
118.06474278297 0.02865405911805767 
122.096238892172 0.024753268008159524 
127.053840828566 0.07502689808643077 
128.056248032328 0.11158673342640509 
129.067015233268 0.06331394046906764 
130.065208871027 0.49745539728692345 
131.068513717027 0.07702724098236186 
138.09116392918 0.051758522538409596 
139.054064575105 0.08469354550893805 
140.056433400807 0.07449540939324914 
141.063181546393 0.028723368707597244 
143.07268856592 0.02549094912194149 
144.07898243016 0.04876036997771177 
151.054119054372 0.03997350429144755 
152.06139425765 0.07643745123355063 
153.066744541865 0.039838878275443405 
154.06594425044 0.08474930983446526 
155.073719563927 0.033629168547345885 
156.080276249627 0.04746834335779092 
164.060217113081 0.029069523024761987 
165.069376316373 0.09552953803520632 
166.066269655191 0.18740644714329202 
167.073168539391 1.0 
168.077494236467 0.2464302521684669 
169.082354597915 0.030202256115269017 
172.075681323861 0.19861905661631696 
173.079016655014 0.037853668286674996 
176.061428032636 0.04351474452503665 
177.065097784068 0.05248568934328432 
178.07197748253 0.06476092630886526 
179.076494475525 0.05176000958709032 
180.080763747927 0.2513537828768969 
181.086457706151 0.11387600113365594 
182.095683080843 0.12355935598545842 
183.09581953075 0.027423198309313123 
189.069194636007 0.036595918138844864 
190.067544311233 0.06332745511737188 
191.073627873274 0.13932570214939766 
192.080125019437 0.11098150461334987 
193.08765784401 0.07124572692187922 
194.095429337397 0.06977236783636166 
202.073814100125 0.032018449900455215 
203.074221038106 0.06946035003376476 
204.080926790614 0.5094764364015522 
205.086566106518 0.28092357094621784 
206.094019151369 0.16000070853495965 
207.101474955526 0.0800801519238911 
208.104838925761 0.026970776869220194 
210.091727277257 0.7427930623055903 
211.094918150782 0.17356574154744037 
216.080852152763 0.10054649039016658 
217.088463996181 0.304405862820634 
218.095060530985 0.24135355544592216 
219.101720351976 0.16723817446405018 
220.109649088155 0.17389809692758249 
221.111400316199 0.0655131542576828 
222.124641769022 0.047831839286776465 
228.080627098513 0.026514493476229965 
230.095345751002 0.03058554728639858 
232.101149620169 0.028779570400383488 
233.08684582905 0.07375083537146476 
234.123879914332 0.08220287017890071 
235.123494028369 0.037276216668241186 
241.08851438219 0.027472463357371038 
242.095130467684 0.03311077900357242 
243.10218206324 0.03383115349491429 
244.110729166208 0.0396200853041102 
247.100424645521 0.04922590368823062 
END IONS

BEGIN IONS
TITLE=tabertinggine.mgf
PEPMASS=293.1653633
CHARGE=1+
RETENTION_TIME=210.497
PRECURSOR_MZ=293.1653633
SMILES=CC(C1=C[C@@]23C[C@](C1)([H])CN2CCC4=C3NC5=C4C=CC=C5)=O
INCHI=InChI=1S/C19H20N2O/c1-12(22)14-8-13-9-19(10-14)18-16(6-7-21(19)11-13)15-4-2-3-5-17(15)20-18/h2-5,10,13,20H,6-9,11H2,1H3/t13-,19-/m1/s1
COMPOUND_NAME=tabertinggine.mgf
IONMODE=positive
SKELETON=Tabertingginan
103.054174273191 0.1422731403816514 
105.069152452872 0.07885581148200581 
106.065446281527 0.08496561799180896 
108.078759467689 0.06865910550885448 
115.055413658083 0.24019582546297605 
117.056014735465 0.09268380267077878 
117.060595798074 0.10017231966960195 
117.069806754899 0.10762481997395221 
128.050016022509 0.18790699668698474 
128.061955644317 0.1765301926939094 
129.0700166579 0.25766315662132167 
130.065421554459 0.8677750886061217 
130.07321470337 0.19975422281195132 
136.075933122625 0.1376026081477052 
143.074213832536 0.12801307136496687 
144.044038767572 0.0992342624119394 
144.081227632091 0.11877498830452787 
154.063502018633 0.09050670680772184 
156.080781413642 0.10428659917109537 
165.070491847961 0.1635533102971454 
167.072701221963 0.283890721796302 
167.079500836242 0.06224375431162863 
167.083664001913 0.09354239962758248 
168.078797780555 0.06364419426045184 
168.083424785908 0.08369520259773472 
178.07724238128 0.1415012621921947 
179.083027563918 0.1436732281264045 
179.086968834881 0.11530591603301836 
180.08191890524 0.35315747120540314 
180.091545449847 0.07609316869579598 
191.072492623247 0.22461202041864814 
192.081498549605 0.3803588040681101 
192.08958391949 0.10108759085525101 
193.088221555015 0.6938316051087965 
193.099362662743 0.20985359795599132 
194.095594422943 0.18445738751865343 
202.076205238816 0.07885039060197035 
202.08039897047 0.067164963964164 
203.089016559618 0.06819079660138384 
204.080382844055 0.9012641829133554 
204.091019309261 0.21251534193272748 
205.08865512948 0.43165732687830044 
205.095390266656 0.13182241870785513 
206.096285327789 0.9664740008315078 
206.10648709955 0.21465551762130558 
207.104019866819 0.3021593937802292 
208.112453340303 0.11757271674140794 
216.079747182309 0.14518505644070223 
217.087833481259 1.0 
217.096709173546 0.26164888163722827 
217.100629265328 0.16049219753135574 
217.112811100407 0.06878450547103084 
218.096749917297 0.8644904028219202 
219.104720812719 0.1892306714617464 
220.072963379742 0.08512521237522597 
220.078015303914 0.09519094437396108 
220.111716029958 0.41829807336717045 
220.122117603391 0.10731602888379639 
230.09679086992 0.43570461104037256 
230.105215168867 0.11892208710006652 
231.103099891884 0.1837159213849889 
232.112054996751 0.21882913585200078 
242.098243369348 0.08880649525558147 
243.113643664358 0.06905649889247133 
244.098908611924 0.1010247147721278 
244.112775264842 0.11998015406631082 
245.106251441732 0.06221634364704252 
250.12438087834 0.06539039141357103 
258.110400410497 0.09420601334853425 
259.120020904379 0.08465965984743437 
END IONS

BEGIN IONS
TITLE=16-epi-dregamine.mgf
PEPMASS=355.2014582
CHARGE=1+
RETENTION_TIME=158.322
PRECURSOR_MZ=355.2014582
SMILES=CN1[C@@]([C@]2([H])C(OC)=O)([H])CC3=C(C(CC2[C@H](CC)C1)=O)NC4=CC=CC=C43
INCHI=InChI=1S/C21H26N2O3/c1-4-12-11-23(2)17-9-15-13-7-5-6-8-16(13)22-20(15)18(24)10-14(12)19(17)21(25)26-3/h5-8,12,14,17,19,22H,4,9-11H2,1-3H3/t12-,14?,17+,19+/m0/s1
COMPOUND_NAME=16-epi-dregamine.mgf
IONMODE=positive
SKELETON=Vobasine
103.054119375561 0.096047641649292 
106.064882913956 0.0355905331004741 
107.072904773543 0.2009140277170346 
108.080862835597 0.09765878231824345 
110.059982520596 0.10953032723192437 
115.054118512716 0.10573700420010665 
116.049256976427 0.029762359895343544 
117.057158052394 0.11395345912545221 
122.096418513021 1.0 
122.10364689594 0.09613904738006734 
122.122013666347 0.05719732097467094 
127.053998315853 0.06495572636633665 
128.049537296949 0.07482146439733471 
128.061906690597 0.10442542517424495 
129.069801793334 0.11087416014141997 
130.065024978327 0.4086089166305167 
130.07190825518 0.05169754556822762 
138.054853081902 0.36859900965781883 
138.062522110111 0.044312737798415006 
142.064929065997 0.02508505852156483 
143.072958674638 0.04497068743382776 
144.080459098534 0.0581079753497475 
150.091209348873 0.050365415788068905 
152.061650021734 0.03007636180927125 
152.070459936836 0.27423553857179805 
152.078571372299 0.04123034658425455 
155.072542642041 0.03191325007294112 
156.080647710183 0.03985085685844807 
158.059694896972 0.05216871858575302 
165.069690438534 0.04853247788537621 
166.065042235224 0.08971595277084533 
166.086373115424 0.04449165808042639 
167.072826770208 0.5227126522220559 
167.081098012123 0.07045603440572072 
167.102447742238 0.027728959667258284 
168.080520753604 0.2118804961061573 
168.088323047243 0.030795623414307353 
168.10139611876 0.03286605642713374 
179.072229661861 0.024658064447402206 
180.080700733657 0.29272929404238224 
180.088438551907 0.03864919255805255 
182.096233344311 0.03762353385385381 
183.067878422513 0.025953013489225133 
191.072732194196 0.0735894992007547 
192.080789668348 0.05880964527237961 
193.088303293476 0.0630232896712412 
194.096177988438 0.08690085452078126 
196.075672868587 0.030339822775266187 
204.080449325183 0.07247036341545547 
206.095984702593 0.05695464748872446 
217.088490079476 0.02710444754423665 
220.075148225637 0.029538239790166294 
233.107772131019 0.02785028161487206 
END IONS

BEGIN IONS
TITLE=16epiochropamine.mgf
PEPMASS=367.2016947
CHARGE=1+
RETENTION_TIME=272.828
PRECURSOR_MZ=367.2016947
SMILES=C/C=C1CN(C)[C@@H]2CC(C3=CC=CC=C3N4C)=C4C(C[C@@H]/1[C@H]2C(OC)=O)=O
INCHI=InChI=1S/C22H26N2O3/c1-5-13-12-23(2)18-10-16-14-8-6-7-9-17(14)24(3)21(16)19(25)11-15(13)20(18)22(26)27-4/h5-9,15,18,20H,10-12H2,1-4H3/b13-5-/t15-,18+,20+/m0/s1
COMPOUND_NAME=16epiochropamine.mgf
IONMODE=positive
SKELETON=Vobasine
106.06514437921 0.03260356820595996 
107.072706650494 0.034667679409715484 
108.080582549468 0.026438518691962398 
118.064940029153 0.03271253326632477 
120.080591472153 0.16916442987515848 
120.087647451377 0.03141440417585179 
121.088171080116 0.054307118136857374 
122.096373405956 0.0582859990177154 
136.075938186382 0.03273543420406392 
138.091101453072 0.025176282966499524 
143.073065925615 0.032061598382656965 
144.080728369194 0.241277683864262 
144.088357077659 0.04108830852874325 
148.0752947017 0.05068034631243504 
150.09078520363 0.028065102054802345 
151.062574325293 0.08780565042089754 
158.096457309381 0.03869333302874896 
164.070395162649 0.13618942102317508 
164.078387953735 0.029604973101392332 
165.078372995552 0.488065527521102 
165.08639740966 0.08546341560918778 
166.049867159197 0.03960308848556841 
166.085995817965 0.2787350515699421 
166.094489942194 0.04532095578577058 
170.096058776754 0.028862605795479203 
178.086202668414 0.4943492935546139 
178.0945506336 0.07800065104910281 
180.065248721787 0.04956308323148793 
180.101848125271 1.0 
180.110184844877 0.17935103539651173 
180.127579804642 0.054924701031398834 
181.072886657108 0.07750476864913022 
181.087816908153 0.032890686571255615 
186.091148082728 0.04515733686651209 
194.096331495623 0.03338088656897123 
196.096852213071 0.1604739237701454 
196.105886640262 0.03856823451473998 
END IONS

BEGIN IONS
TITLE=16epiperivine.mgf
PEPMASS=339.1700507
CHARGE=1+
RETENTION_TIME=217.548
PRECURSOR_MZ=339.1700507
SMILES=C/C=C1CN[C@@H]2CC(C3=CC=CC=C3N4)=C4C(C[C@@H]/1[C@H]2C(OC)=O)=O
INCHI=InChI=1S/C20H22N2O3/c1-3-11-10-21-16-8-14-12-6-4-5-7-15(12)22-19(14)17(23)9-13(11)18(16)20(24)25-2/h3-7,13,16,18,21-22H,8-10H2,1-2H3/b11-3-/t13-,16+,18+/m0/s1
COMPOUND_NAME=16epiperivine.mgf
IONMODE=positive
SKELETON=Vobasine
103.054764606876 0.10787687340860565 
104.049774646042 0.11727018111362231 
105.06916751986 0.16410581127219057 
106.06487118677 0.4405897358670743 
106.071067162842 0.11619919889771362 
107.048988286055 0.06781103978080753 
107.073596321714 0.10886303395949588 
108.080689605846 0.11369454872581733 
115.054063493434 0.17483642383006578 
117.057656592784 0.0905941231945752 
117.069573769222 0.11398253132196107 
118.064046920767 0.05802211371162373 
119.085561589176 0.05720066371174231 
120.081880118242 0.10324006112219142 
122.059266914311 0.17888596663891979 
124.075297564055 0.1605904947561555 
127.055245253398 0.06161300293199959 
128.048990183204 0.06523964689523458 
128.062151907552 0.06624674804171043 
129.071168887754 0.14974051526987597 
130.065337714522 1.0 
130.072537447179 0.2096144132008756 
130.082738356091 0.04759745202990971 
132.07955828434 0.11677658700702842 
134.060347100008 0.05170345302437061 
134.097268730401 0.05764475611597406 
136.076210522599 0.05024423580264774 
142.064566074725 0.06150619719890878 
143.073022158672 0.11974993023754019 
144.081102661849 0.14222174264648338 
148.076692293281 0.10848556569252185 
151.062628545575 0.7052980734493959 
151.071036685098 0.09011815744893112 
154.064142624756 0.1477561784243091 
156.080984365658 0.15288524095123585 
156.086350206707 0.054977948738623585 
162.092022174591 0.05748470166568249 
164.070713199472 0.20889805352855753 
166.066458055982 0.09718562822182011 
166.086408971047 0.7152174651997973 
166.097028242361 0.12966892673321176 
166.107604175013 0.048827287121731344 
167.072940103865 0.14868866338289038 
168.080692260139 0.08139520176568193 
170.060731764824 0.09417900454305787 
179.085506151957 0.06872690032545274 
180.082040005947 0.18528284823720342 
184.076396563865 0.0560310733458392 
193.088922917985 0.09847534440520883 
204.080140582506 0.09589369861194444 
205.086896169028 0.10248417597689183 
206.097408868382 0.08023860737529516 
207.067533929658 0.04852442713755734 
207.101818497986 0.05553550296559624 
208.113894776933 0.05383415269638824 
217.087643614785 0.0904969695819865 
218.096503885845 0.05143083002702752 
219.102619251179 0.053044829000946245 
220.075508531138 0.05201695326587126 
220.112461924853 0.04987137620582337 
232.100995503503 0.04964976478391028 
233.081709870508 0.05425859303545356 
248.10728514589 0.05026239380493547 
END IONS

BEGIN IONS
TITLE=16epivobasine.mgf
PEPMASS=353.1861165
CHARGE=1+
RETENTION_TIME=214.313
PRECURSOR_MZ=353.1861165
SMILES=C/C=C1CN(C)[C@@H]2CC(C3=CC=CC=C3N4)=C4C(C[C@@H]/1[C@H]2C(OC)=O)=O
INCHI=InChI=1S/C21H24N2O3/c1-4-12-11-23(2)17-9-15-13-7-5-6-8-16(13)22-20(15)18(24)10-14(12)19(17)21(25)26-3/h4-8,14,17,19,22H,9-11H2,1-3H3/b12-4-/t14-,17+,19+/m0/s1
COMPOUND_NAME=16epivobasine.mgf
IONMODE=positive
SKELETON=Vobasine
105.069148593939 0.03404588806432269 
106.065231983883 0.03459197951335839 
107.0727987112 0.05431026023458435 
108.080167954422 0.03369225027362582 
115.053452177805 0.027533383748513055 
117.056469325036 0.029720028012574905 
118.064365856913 0.026698458050330377 
120.080674497489 0.12977005645847806 
120.088568183605 0.024909860733890322 
121.088375455744 0.04392297660167209 
122.096390064274 0.22402930976400381 
122.103127950419 0.0492275574404558 
129.069800046507 0.03295226539817974 
130.065181711508 0.3483636267058805 
130.072652955663 0.07022535864902228 
136.075519876491 0.04541570856857699 
138.091405706063 0.04686357009364084 
144.080925646463 0.07346406800178364 
148.075757475281 0.04544970386906218 
151.062343771553 0.03801957805010672 
154.064837807151 0.13831259182016037 
154.073358027032 0.029291620130473737 
155.073146666344 0.03419507878886151 
156.080535824775 0.05107208205839308 
162.090713064002 0.03026337970877546 
164.071045144405 0.04260381356820657 
165.078283400842 0.45532958807256985 
165.086993158443 0.09168647163167656 
165.102873834799 0.025027474409170903 
166.06476168831 0.059119952250022006 
166.085893375535 0.278690593841427 
166.095165512037 0.027184177088677132 
167.072707910006 0.12495213120620413 
170.05948070878 0.03430903014147468 
172.074925991705 0.06823148954490749 
178.085611267868 0.33817552030841785 
178.09367647006 0.04148782557279705 
180.101735431728 1.0 
180.110746698639 0.1832297771993855 
180.133007825725 0.04508966400286276 
181.087723199932 0.06630456266695368 
183.068366128129 0.038631283783878236 
184.075288124744 0.04656692195758135 
191.073147438321 0.026474035949471127 
192.080000599036 0.041279632313986854 
193.088656832645 0.05783458882041059 
194.096267847219 0.08027085811574895 
204.08050528416 0.07747362638437892 
205.088675023765 0.07238923221222461 
206.096232771015 0.09726265143774121 
207.104418597536 0.1314902298456932 
207.112838529604 0.02968401983245573 
219.103876850976 0.026955729228549902 
220.111467033941 0.07588572994144477 
222.127633514215 0.051290968740258853 
233.083144059427 0.044819686521953665 
END IONS

BEGIN IONS
TITLE=chlorhydrate-N-Me-dregamine.mgf
PEPMASS=369.2169189
CHARGE=1+
RETENTION_TIME=247.458
PRECURSOR_MZ=369.2169189
SMILES=CC[C@H]([C@H]([C@@H]1C(OC)=O)CC2=O)CN([C@@H]1CC3=C2N(C)C4=CC=CC=C34)C
INCHI=InChI=1S/C22H28N2O3/c1-5-13-12-23(2)18-10-16-14-8-6-7-9-17(14)24(3)21(16)19(25)11-15(13)20(18)22(26)27-4/h6-9,13,15,18,20H,5,10-12H2,1-4H3/t13-,15+,18+,20-/m0/s1
COMPOUND_NAME=chlorhydrate-N-Me-dregamine.mgf
IONMODE=positive
SKELETON=Vobasine
103.054027197938 0.0394683880272999 
105.070021428149 0.057045735877953405 
107.072880078096 0.05011374957250977 
108.080847090869 0.05483147591928984 
109.064532667734 0.028076345107281457 
110.06016584059 0.1451226153480142 
110.066926978956 0.027305259616671376 
110.096790894691 0.06187182170312105 
111.067828448556 0.03866124466566547 
115.053620594828 0.031911155450314484 
117.057278215172 0.03911875678408398 
117.070241147504 0.03587813461853003 
119.085430041366 0.0765559250144975 
120.080994066044 0.03003473358065811 
122.096511859947 0.7173852839278545 
122.103728502163 0.10400042563157033 
122.117515943496 0.027712829725068024 
123.067810967851 0.03941280035834833 
124.112221170664 0.06000666327152692 
127.054281779792 0.02504460767549403 
128.049830388211 0.03320320747773334 
130.065286802283 0.07639552324803354 
131.073144164879 0.14042979495338498 
131.081150205941 0.025034524482179233 
132.080735286188 0.07834111489450284 
136.112529409639 0.044726173925326754 
138.054775467427 0.06067577840393737 
138.09151667251 0.3478554395342959 
138.099652432169 0.06597024482179234 
138.128141947496 0.11735164230591943 
138.135646936774 0.027436973071833227 
140.107055660738 0.1845914401588033 
140.115508077102 0.03930945924345382 
143.073177083904 0.08548703217700326 
144.080835398136 1.0 
144.088766962676 0.16654619496528034 
144.10831414955 0.04851507553566384 
150.09133561248 0.22900716324922307 
150.099345792723 0.045936389454745506 
152.070473615193 0.06373121830996387 
152.107428584657 0.03277976447147339 
155.073543690055 0.026069650238651064 
156.080868609607 0.027164949890711197 
157.08837234533 0.0647072900093676 
158.060036433279 0.11693525753497985 
158.096727259282 0.1357666200764278 
158.104865289041 0.02620003475681382 
164.107064280524 0.10647773147666274 
165.069970811495 0.05524130893789124 
166.086388500989 0.04973374793689501 
167.072978594982 0.13011296893818863 
167.083425639861 0.026737417847530965 
168.081032054226 0.10854664475934159 
168.101929824293 0.18263613704964834 
168.110421419568 0.03980371228792767 
169.088391686364 0.04710565885536705 
170.096049001405 0.10565769370883082 
172.075798884602 0.11139749342036787 
179.085866814396 0.031821684534518904 
180.080815755517 0.2192716310053083 
180.089029295999 0.041947529292373574 
180.101532529748 0.03029947084144945 
181.08857641649 0.29910951927795043 
181.097834442023 0.06632376065008252 
182.096181458632 0.15951867388815366 
182.103767162351 0.0324554527307332 
182.117730701988 0.17764346943630768 
182.127048757032 0.045784509612954064 
183.067895323848 0.07086189463667047 
184.075751151611 0.050134566487740326 
191.072745992187 0.06128132759876882 
192.080905608244 0.062012614678899076 
193.0884873132 0.06574571952180572 
194.096464500291 0.43150398495234416 
194.104942903945 0.07129997918308477 
196.075653232111 0.055550681753973805 
196.112145837308 0.0879711685724057 
197.083214149724 0.08423434642320789 
198.091444604777 0.039596054265237234 
204.080978169928 0.040859873351374656 
205.088880890056 0.0719975781749513 
206.096239713573 0.2855071520973042 
206.105356195647 0.05913332862474536 
207.104206057031 0.3894594850787325 
207.113865551974 0.0744715849107103 
208.075743034857 0.1297001620745543 
208.111527654723 0.1741529188288998 
209.083542115431 0.043593315539827225 
210.09147263076 0.16884251446032147 
217.088539371399 0.029751330795652238 
218.096316500511 0.07437019538161867 
219.104032838001 0.05955101445288686 
220.075926453329 0.03562011638885998 
220.112421599122 0.1301493985398421 
221.083807416871 0.04564297782255067 
221.119598159304 0.0889802778314722 
222.091252227178 0.09649346497554012 
222.127474181674 0.05230347530965161 
223.099183657454 0.033511195597222425 
224.106818117327 0.049672505315747996 
231.10448683717 0.06157694638157406 
232.112028109502 0.07226257564718302 
233.119735975115 0.0335332856898577 
234.091560703269 0.1832582282574755 
234.127568412595 0.06039851382094479 
235.099204161895 0.07813025069513628 
235.135855539573 0.046459897699730864 
236.107289789147 0.03132350973190787 
236.143117219793 0.04369087624343895 
245.120303606578 0.033324967845300583 
246.128063409496 0.025462925445705022 
248.107459168931 0.08116761519932196 
249.114675833507 0.05270220287570815 
250.158955174516 0.038000261140766954 
251.094386110594 0.10932895186831813 
265.133663647187 0.04586000345709485 
274.110752929502 0.02697605032489257 
289.13344736625 0.10196994000267645 
END IONS

BEGIN IONS
TITLE=Dregamine.mgf
PEPMASS=355.2012394
CHARGE=1+
RETENTION_TIME=714.176
PRECURSOR_MZ=355.2012394
SMILES=CN1C(C2C(OC)=O)CC3=C(C(CC2[C@H](CC)C1)=O)NC4=C3C=CC=C4
INCHI=InChI=1S/C21H26N2O3/c1-4-12-11-23(2)17-9-15-13-7-5-6-8-16(13)22-20(15)18(24)10-14(12)19(17)21(25)26-3/h5-8,12,14,17,19,22H,4,9-11H2,1-3H3/t12-,14-,17-,19-/m0/s1
COMPOUND_NAME=Dregamine.mgf
IONMODE=positive
SKELETON=Vobasine
103.055087244303 0.11790318165843447 
105.070118327633 0.04822333086641202 
106.066849192807 0.03972350826362801 
107.074141229745 0.06421611704798971 
108.080947732548 0.05865298055800219 
109.066976837608 0.032316405607427164 
110.061192563379 0.09959558795199856 
110.094016981228 0.049512551313694225 
115.055132915519 0.09552757999039811 
116.05454764038 0.04128674794217554 
117.06332509203 0.11108761077275166 
118.0661872182 0.06435863787080456 
119.085428819262 0.04365150811085533 
120.081875674185 0.09315320452408128 
121.087079187225 0.029088912020696675 
122.097283174809 0.26043224615697996 
123.09882429968 0.04313452672466444 
124.076328196827 0.030786561499209164 
124.11033920465 0.029352833514304177 
127.055072990895 0.0715909163244637 
128.056773872577 0.12376502892797472 
129.069646397503 0.10239387408382462 
130.066488907152 1.0 
131.070075693666 0.1235833098534689 
132.078319872613 0.025591901976228435 
136.077035641283 0.06447331788408507 
138.055770397914 0.02867033499763973 
138.092379647397 0.5905990531444536 
139.055547789942 0.06595303513402954 
139.095540491928 0.05911066202496827 
140.055921368838 0.02866659943775636 
140.107921439296 0.13706288505162945 
141.068814099708 0.024921183036738813 
142.067799866698 0.028539640655890607 
143.074961407058 0.05761328881037326 
144.045407500128 0.04387858994842917 
144.080799481085 0.13525229435407815 
145.072522507731 0.03413521118644397 
148.078888487746 0.031167005658954437 
150.092551674412 0.10961757582600265 
152.066976465798 0.0966819182485283 
153.069053629251 0.04827639926870134 
154.066694170769 0.2432414340931652 
155.072957970194 0.07785553400582344 
156.081664012352 0.11757207369137307 
157.08648240419 0.026010438795950316 
158.063436150134 0.046554959466662556 
164.107412268571 0.06126552728181566 
165.074128869888 0.16621248065633284 
166.070261580967 0.2113278256997809 
166.086026110319 0.029137762423081807 
167.074921021188 0.48715051157068734 
168.08285614866 0.23735311962803873 
168.098787757392 0.10307853688002688 
169.087647830716 0.048918513535290316 
172.078499384158 0.05855079708137189 
178.083420829454 0.13735372267806475 
179.080048990805 0.07349333813986539 
180.084142085817 0.4401162948472391 
180.099742689352 0.15523442397164056 
181.088607058991 0.11049695677504927 
181.098764507271 0.03393161479710549 
182.098389921739 0.07054995147122428 
182.116513169376 0.16146101599858215 
183.075656189664 0.044210535484971156 
183.09655674376 0.024954360839003396 
184.078268025281 0.09129436982444879 
190.069474706759 0.024734311234788482 
191.075306284985 0.19046386943028856 
192.08286984926 0.25609976725619277 
193.090254968955 0.47633313421514883 
194.080000852122 0.09087776276481015 
194.093773875945 0.17134319677488846 
195.097279239867 0.03243240227993113 
196.080017873653 0.14617500444749393 
197.085638474937 0.026883568126393923 
204.083030579092 0.36653280072848443 
205.089466614979 0.23883920240603557 
206.097642827644 0.2156901890796351 
207.102632893037 0.09324175236956782 
208.096739650244 0.04794462124605546 
208.111933659057 0.14795581117431597 
209.098173976894 0.028763080741362895 
210.09517503542 0.062182598857488225 
216.082997462428 0.0357491740727352 
217.09067423381 0.15283649605152996 
218.097733492477 0.17749638421255234 
219.104403870518 0.11935914543790979 
220.09709759938 0.25632775366880556 
221.103178971417 0.09266121621119079 
222.122182900167 0.09177821696198807 
226.088850535172 0.039573114287695735 
230.098260805361 0.05680573781998085 
231.104070347632 0.04586600831471974 
232.107537189424 0.05770542145323665 
233.093656584633 0.06365236578200345 
234.106159946294 0.03764328719888958 
234.128620175607 0.11200123156216424 
235.103971926941 0.031703884345725894 
235.120458740937 0.03402719822622886 
236.084514808301 0.028631270757065654 
236.140551755446 0.029652710190573858 
237.084719081262 0.03393741077791108 
238.120422987895 0.059172307138738695 
244.113177205065 0.05170885950844052 
245.117581640095 0.028200907456278033 
246.0987110967 0.028294742040325956 
246.125476513465 0.025836046779260574 
247.106896500994 0.05683183648499561 
248.110639912542 0.1075521629896808 
249.115818066164 0.04294717918324915 
250.124990438594 0.14498853702408881 
251.125613761066 0.04209580655763299 
252.105879331433 0.1456229456514565 
253.11025892313 0.02756337301960884 
262.124901815171 0.1286074871340952 
263.129274375765 0.03172780197981324 
264.140388677289 0.07290915017855305 
275.120583070348 0.037971346413041694 
280.137929697777 0.024771475867780612 
281.167119817526 0.0894588195563763 
290.120430319572 0.03541783158621924 
292.135307050944 0.0256654204749555 
305.167135825757 0.024819414994570875 
END IONS

BEGIN IONS
TITLE=hemitheion.mgf
PEPMASS=371.179
CHARGE=1+
IONMODE=positive
SMILES=SC1C(NC2=C3C=CC=C2)=C3CC(N(C)C/C4=C/C)([H])[C@]([H])(C(OC)=O)[C@]4([H])C1
INCHI=InChI=1S/C21H26N2O2S/c1-4-12-11-23(2)17-9-15-13-7-5-6-8-16(13)22-20(15)18(26)10-14(12)19(17)21(24)25-3/h4-8,14,17-19,22,26H,9-11H2,1-3H3/b12-4-/t14-,17-,18-,19?/m1/s1
SPECTRUM_ID=CCMSLIB00005788102
MS_LEVEL=2
INSTRUMENT_TYPE=LC-ESI-qTof
PEPTIDE_SEQUENCE=*..*
ORGANISM_NAME=MIADB
PRINCIPAL_INVESTIGATOR=Mehdi Beniddir
DATA_COLLECTOR=Mehdi Beniddir
SUBMIT_USER=mbeniddir
CONFIDENCE=3
PRECURSOR_MZ=371.179
COMPOUND_NAME=hemitheion.mgf
SKELETON=Vobasine
122.097321 0.04566908517991488 
125.040512 0.11837495361886285 
128.069565 0.7621990777683126 
129.075073 0.031007515548677082 
130.067719 0.38689712560428774 
144.080536 0.2675162653463764 
152.069992 0.05165478565733446 
152.104401 0.0689864963645059 
154.073181 0.04748276654506872 
168.089752 0.02469380683510547 
173.105225 0.10888384000937884 
180.099884 0.069591472828397 
182.11554 0.1805622890457367 
183.044006 0.06554857428354871 
183.092972 0.028843851725016148 
195.124191 0.02866131395238722 
208.08812 0.03879728342600238 
214.088211 0.6465660271821951 
215.09166 0.06060985510293397 
222.088501 0.03639257201974869 
222.124863 0.04069463000966965 
240.102951 0.28250917385214436 
246.125732 0.02607332651139356 
252.101807 0.06050397852550832 
254.11615 0.10712070659788135 
256.115021 0.15481331063180678 
268.079712 0.026152986612960533 
280.121826 0.02459585691065503 
293.158936 0.03540278454739917 
305.162415 0.052274068784251206 
306.1521 0.05958911886219826 
308.110321 0.0671761851604897 
337.192902 0.028803394457397703 
339.15033 0.15646561106706622 
340.138336 0.124236560190361 
371.176544 1.0 
372.18396 0.08027177343109672 
END IONS

BEGIN IONS
TITLE=N-Me-16-epi-dregamine.mgf
PEPMASS=369.2176889
CHARGE=1+
RETENTION_TIME=282.303
PRECURSOR_MZ=369.2176889
SMILES=CC[C@H]([C@H]([C@H]1C(OC)=O)CC2=O)CN([C@@H]1CC3=C2N(C)C4=CC=CC=C34)C
INCHI=InChI=1S/C22H28N2O3/c1-5-13-12-23(2)18-10-16-14-8-6-7-9-17(14)24(3)21(16)19(25)11-15(13)20(18)22(26)27-4/h6-9,13,15,18,20H,5,10-12H2,1-4H3/t13-,15+,18+,20+/m0/s1
COMPOUND_NAME=N-Me-16-epi-dregamine.mgf
IONMODE=positive
SKELETON=Vobasine
107.072889277248 0.05705950921587274 
108.044438553066 0.03805125122079988 
108.080865717377 0.0793252535962803 
110.059962962517 0.031033129303150272 
110.096288323843 0.024658441915209516 
122.096462841535 1.0 
122.103502259413 0.1251257521702496 
122.121577964081 0.052234001075166764 
124.112271967085 0.06179341346984486 
128.070512034047 0.0285106412011206 
130.065050539896 0.025160467334334923 
131.07298988086 0.1364355111647379 
136.11198377948 0.09435027761094655 
138.05503249699 0.09735039018439773 
138.0912485458 0.09849524813616692 
138.127795253 0.25422797588720825 
138.135291112933 0.042891969820683135 
140.070416391459 0.028404268319723855 
140.107317357289 0.05097550614408238 
144.080807304283 0.2488984958701998 
144.088498707075 0.040336913677433514 
146.096401693602 0.09946610886956389 
150.091423457389 0.3120064501978865 
150.098750390781 0.05114390478974951 
152.070489779992 0.09165977212805762 
152.106912139683 0.05701628582660117 
158.096250328901 0.10510664077009071 
164.106947120683 0.22637477568084363 
164.114636699488 0.039271699937372236 
166.086052727859 0.13972608732208228 
167.072695154659 0.054586886537399175 
168.101880233852 0.43731193862519524 
168.109823522328 0.06207434543354123 
172.075637510634 0.19636381732760258 
172.083852281722 0.08984760042966537 
180.102012191756 0.23705641093764454 
180.110079682193 0.053561224004512575 
181.088703505167 0.06477496446712323 
182.11747415788 0.2899956315079645 
182.126198863891 0.06824174516541173 
194.096337721969 0.06271344558438163 
196.111756926683 0.06441930460108364 
196.133505825337 0.024870505414662604 
198.091408776201 0.03282984974353922 
208.111720751842 0.028127570402051764 
210.091019363045 0.061629048204513655 
295.180621800563 0.03895418661868884 
END IONS

BEGIN IONS
TITLE=Ochropamine.mgf
PEPMASS=367.2020515
CHARGE=1+
RETENTION_TIME=1019.526
PRECURSOR_MZ=367.2020515
SMILES=C/C=C1C2CC(C3=C(C[C@]([C@@H]2C(OC)=O)([H])N(C)C\1)C4=CC=CC=C4N3C)=O
INCHI=InChI=1S/C22H26N2O3/c1-5-13-12-23(2)18-10-16-14-8-6-7-9-17(14)24(3)21(16)19(25)11-15(13)20(18)22(26)27-4/h5-9,15,18,20H,10-12H2,1-4H3/b13-5-/t15?,18-,20?/m0/s1
COMPOUND_NAME=Ochropamine.mgf
IONMODE=positive
SKELETON=Vobasine
103.053668711043 0.08654010434492107 
105.069096504633 0.05008833096240805 
106.065054794488 0.024663148558516767 
107.071517383712 0.030090500654084876 
108.079717473945 0.056717964593173735 
110.059894645432 0.057355027829246175 
110.093895157993 0.054067990329893005 
115.053873397779 0.15740318772190545 
116.058459540123 0.029427146928070635 
117.067168542859 0.1318696841419142 
118.065192244499 0.04266686880809486 
119.08491348151 0.029969687863979397 
120.080520095243 0.11052804303796779 
122.095476588766 0.03576448496149478 
123.067795654884 0.03879340631607233 
127.053435286566 0.07455664302398735 
128.054891076475 0.09970291564801609 
129.067209771159 0.040640158904950256 
130.064803025923 0.0836127000496578 
131.072463280367 0.10207046686499525 
132.080663394645 0.049261079271818796 
136.075154191124 0.11605535528020343 
138.090992645127 0.5886559622491805 
142.065513161159 0.03269112577947762 
143.072720801079 0.1677272434294201 
144.080294107909 1.0 
144.186079312944 0.030303543496871196 
145.072235477364 0.07582146433308308 
148.07648716256 0.03089814341571202 
150.09056609756 0.03598404595751944 
151.059228774049 0.039754892927077484 
152.060678932242 0.0697519561268371 
153.063386159056 0.04345084014274574 
154.064232517168 0.0625485343687332 
155.071687505374 0.035331254726341965 
156.080613920597 0.04476752071420077 
157.087825043428 0.06010200274343442 
158.094927057064 0.15838617606821004 
162.090639381344 0.03755056334818831 
164.069815911576 0.031807952328514924 
165.076163907653 0.1210555413834644 
166.085052433903 0.07367042837339396 
167.073189594048 0.194376050235171 
168.080303239144 0.2919334222392489 
169.08782507487 0.08983267955106447 
170.095871476854 0.12497138094974396 
176.106385675209 0.06755266949241016 
178.083228725258 0.13002726185818206 
179.078120386621 0.055160280298745666 
180.080783280437 0.16876933090884663 
180.091853520716 0.11494377411966349 
180.100838336864 0.1983289288894901 
181.088752848531 0.21120073823986263 
182.095129616956 0.10712348813795972 
186.091464911778 0.05340414638065471 
191.074787374414 0.06860129328149071 
192.082215883803 0.06232757078959529 
193.089198227845 0.05858621437824717 
194.09639515802 0.21811433821226486 
195.103916378189 0.056542664399535564 
196.079564403623 0.05205807511127614 
196.103824536895 0.03755476655842417 
197.085261395491 0.062145507331106756 
198.090759653326 0.07782352690190725 
203.074124228345 0.042852795044024776 
204.08025053492 0.2327541285419763 
205.088364474113 0.16897368136761387 
206.095249965901 0.11081377963013565 
207.103538904646 0.06115829761815061 
208.07846156581 0.09944632010305583 
208.088713078743 0.03968352459604245 
214.084883471285 0.03305523907914291 
216.081781120231 0.03021044193623649 
217.088501023637 0.17971129483386425 
218.095849927669 0.5012151181211015 
219.103352384544 0.29662122721029394 
220.110861992057 0.19741584274365231 
221.116679778794 0.03524977327175888 
222.107322085713 0.07913319455779597 
230.095552725369 0.03479473264223963 
231.103776334116 0.05566738898940483 
232.109673122729 0.18528880956552604 
233.118941992837 0.13899839224938926 
234.125942367796 0.24443828135000215 
235.130833395788 0.05635942077402616 
240.101333459831 0.029894651936971817 
242.096631816436 0.04228564762573091 
243.102777511629 0.03952407495331532 
244.110954436544 0.05316661507218537 
246.094977709632 0.055967423758940905 
247.099929814985 0.10814337939918606 
248.1412524966 0.1963301798665322 
249.138810183787 0.027699972493030207 
250.091959108233 0.0586903868133584 
258.125944185787 0.05405759578190151 
259.132170507258 0.026849580450624085 
260.109588254736 0.044034341952486476 
261.114029304926 0.08941585363750172 
262.121770696656 0.19759259545054692 
276.137727224529 0.2410235134661596 
286.123228121716 0.02859685403785068 
294.148291492906 0.06338513661341087 
304.132869813491 0.06919092288153211 
307.177889492589 0.028125059575739034 
308.164131998215 0.08155112982835833 
336.158091611192 0.04460781688165376 
END IONS

BEGIN IONS
TITLE=Perivine.mgf
PEPMASS=339.169367
CHARGE=1+
RETENTION_TIME=803.801
PRECURSOR_MZ=339.169367
SMILES=C/C=C1C2CC(C3=C(C[C@]([C@@H]2C(OC)=O)([H])NC\1)C4=CC=CC=C4N3)=O
INCHI=InChI=1S/C20H22N2O3/c1-3-11-10-21-16-8-14-12-6-4-5-7-15(12)22-19(14)17(23)9-13(11)18(16)20(24)25-2/h3-7,13,16,18,21-22H,8-10H2,1-2H3/b11-3-/t13?,16-,18?/m0/s1
COMPOUND_NAME=Perivine.mgf
IONMODE=positive
SKELETON=Vobasine
103.05066730425 0.2147277592076744 
104.046524493849 0.055276789099048436 
105.065212180642 0.07639445098436026 
106.061949130266 0.2588832257877997 
107.050806227472 0.045016713093056236 
107.057118389675 0.04784089803201242 
108.077483392899 0.08917710666614002 
115.050363221418 0.3824511912125248 
116.050643120062 0.052473615138328385 
117.057439783095 0.199829591193957 
117.064816748939 0.033212399408923725 
118.061620812684 0.0905706312943862 
119.08155545484 0.03260640370640171 
120.076880782622 0.10233938511942257 
121.061178120617 0.2012464070616432 
122.057454035273 0.15689695540338433 
124.071995536312 0.43149952827096344 
127.050845452371 0.12093153556454177 
128.054026763705 0.19371995704965145 
129.065685085644 0.2226488980026948 
130.061742229858 1.0 
130.164041027677 0.0403674885243819 
131.06314371323 0.03926186316071077 
132.077565267435 0.14803423160694487 
133.051145145958 0.028776065726900446 
134.055818868061 0.05391909714686388 
134.091415661234 0.0421200891419255 
136.07189074194 0.04061207096987245 
139.051613519383 0.05614634227779364 
140.045970761749 0.05188461552556559 
142.061878710127 0.15632033435144282 
143.06986913466 0.1414367030029004 
144.077126266896 0.5524629060544599 
145.067939073503 0.034583801431596846 
148.07188431862 0.04996365833706251 
151.058845895618 0.19309610201562874 
152.061705633556 0.05490123822255268 
154.062107830586 0.2411393325105391 
155.06929741761 0.06605424008463028 
156.07660072045 0.26511636050766757 
157.075843846726 0.07106784224990116 
158.081110469136 0.14047284473579305 
159.088014888115 0.11953210668853545 
162.087825962357 0.09500647227711362 
164.066715933283 0.06143333147383461 
165.065909918981 0.03961211128163302 
166.068198282107 0.030857174617923915 
166.082188344508 0.5299392188232305 
167.068694768124 0.18790907784200966 
168.076092060653 0.08659092399034309 
169.074053966062 0.07673913689670295 
170.059094225269 0.030454065156020765 
176.063187256455 0.04921015416601686 
178.071179813836 0.03876546251230221 
179.072639233496 0.03405229290443792 
180.078479788881 0.15425026436778333 
181.081985524101 0.04860963109038426 
182.077765145367 0.04028555385305101 
183.068374004566 0.05501696147865166 
184.071972950476 0.211351547462619 
185.069621964916 0.037526050966281047 
186.08723413296 0.02568377500499825 
191.071503620331 0.0931722057333096 
192.077722529439 0.069651637166466 
193.08389950403 0.05830061905019791 
194.09110079182 0.06699814606620332 
204.077288889206 0.3047498248067173 
205.084925371715 0.13108745249625486 
206.090160437005 0.11259013648584873 
207.094301296536 0.03631938559990618 
208.101301266096 0.0923114885667296 
217.085077814626 0.08080423183904288 
218.092623829988 0.12935828156258156 
219.100326527521 0.08206973608826891 
220.106852540593 0.15942609083013318 
221.106819300821 0.03698154087836476 
230.092373002867 0.03928629860264779 
231.094404476241 0.03088412241908025 
232.092938384555 0.028981097856188 
233.087732477558 0.0738656005902619 
234.124460996751 0.12154590308319818 
235.084024040377 0.05814816730113578 
236.094342211314 0.039657944531831836 
237.134183169104 0.03269800098458421 
244.107842719239 0.029568427991997912 
247.111755792804 0.04585112581789101 
248.103847312966 0.11653466261703135 
262.118294003718 0.06388163978469448 
263.114358817573 0.031719793359472184 
265.128089724583 0.08914611954513675 
279.14374864787 0.036504070469843754 
END IONS

BEGIN IONS
TITLE=Tabernaemontanine.mgf
PEPMASS=355.200791
CHARGE=1+
RETENTION_TIME=900.51
PRECURSOR_MZ=355.200791
SMILES=CN1C(C2([H])C(OC)=O)CC3=C(C(CC2[C@H](CC)C1)=O)NC4=C3C=CC=C4
INCHI=InChI=1S/C21H26N2O3/c1-4-12-11-23(2)17-9-15-13-7-5-6-8-16(13)22-20(15)18(24)10-14(12)19(17)21(25)26-3/h5-8,12,14,17,19,22H,4,9-11H2,1-3H3/t12-,14+,17+,19+/m1/s1
COMPOUND_NAME=Tabernaemontanine.mgf
IONMODE=positive
SKELETON=Vobasine
103.053394724127 0.11704721985533972 
105.068884206354 0.051045242175428364 
107.07308075225 0.05858284507986793 
108.079269796034 0.03422096921945628 
109.064074036531 0.03842342913285159 
110.060582965671 0.03603546245302155 
112.110683472551 0.06038515181953634 
115.052930643146 0.07059198763669204 
116.051651950615 0.04978556410889499 
117.058421574198 0.08349230724520032 
118.06389274614 0.0452118923573588 
119.083839388509 0.06582626260258084 
122.095087216678 0.21630606611429368 
123.09969561181 0.04556500761839032 
124.109631511954 0.027510607011947408 
127.052769439658 0.04338912012292973 
128.053664294299 0.09652186718577711 
129.066274872028 0.06633846167372091 
130.063919500824 1.0 
131.067333116288 0.15764099272791124 
138.054328630152 0.02601369527464425 
138.090056687055 0.21333077880976295 
139.05309385427 0.0809732197522796 
139.092706348386 0.03284697255987439 
140.053532396583 0.03776482118212898 
140.105259832615 0.06268436956385295 
141.066431571958 0.03350582472891157 
142.064875445257 0.028942556677575896 
143.07161898042 0.04481171622711033 
144.042862750371 0.07463555911463046 
144.077846322107 0.09873343497699585 
150.08984747745 0.13429528485257883 
152.062618816318 0.10070938093832095 
153.066577762076 0.05547699866437003 
154.06417037796 0.15568302123453823 
155.070374531186 0.056884795138687924 
156.078734737404 0.07255008123922234 
157.084812769855 0.02807355464885436 
158.059725610549 0.03296852001503408 
164.105530601801 0.07243466366375827 
165.068169121643 0.08081897146479947 
166.065360802625 0.21084287799561238 
167.071526885244 0.529262116342186 
168.078649729295 0.29209780357374426 
168.089685441624 0.07584756576616047 
169.08301429347 0.050564474001373 
172.074855863886 0.07535128972913015 
172.104108196103 0.031746378303449556 
178.069042269564 0.05370480404288767 
179.074733209269 0.07054800391823864 
180.079580363012 0.5984496532954697 
181.083966051202 0.18175244712856653 
182.09433295053 0.07379530158153338 
182.112510695314 0.1205632065083204 
183.069315761096 0.08127167895451116 
184.074441141169 0.11215120435040737 
191.07138765691 0.13473333924341654 
192.078693173367 0.20748414351538097 
193.086279152247 0.23331719050274047 
194.058775778157 0.07592486086272074 
194.091817704316 0.24139434492955156 
195.096021955421 0.05839091390645022 
196.074805682004 0.24962237743110174 
197.078913499955 0.050668413316052444 
204.079240530951 0.1320622502715097 
205.085616281942 0.08910451737943002 
206.094662124818 0.1649296150606504 
207.099542817383 0.11117862933447822 
208.073806369343 0.04491377506076762 
208.093269617949 0.05725644656979503 
208.105882498026 0.047791765788775094 
210.092714635153 0.06838508441528152 
216.079031295493 0.05260291542939562 
217.086778393481 0.1476234261045445 
218.092993115669 0.09943636855181226 
219.099373927762 0.038673728483450666 
220.077921528262 0.17196552028147624 
221.08455099648 0.1361383272071169 
221.112259890472 0.03744653145275462 
222.122131950299 0.14008631163673405 
223.123778277038 0.043564859622091695 
226.084919761999 0.0335217966066842 
230.095023647497 0.04292339579705165 
231.100966017329 0.06542024965461425 
232.106455630928 0.07109229327591272 
233.107710322923 0.03396856959135194 
234.091361325899 0.0803953747981841 
235.097734119934 0.12047531233690796 
236.137346943062 0.09699821500833883 
237.140208627942 0.02993393650372665 
238.118055645591 0.07584702848586843 
246.125186796646 0.038599266319339375 
247.12531346842 0.026476269184264427 
249.11342049726 0.04869906124922064 
250.120948853821 0.2628726863062151 
251.123185139558 0.08633325005488807 
252.112098786532 0.036152809353170695 
264.136593790515 0.13306613407536624 
265.140131348214 0.04195057656280794 
275.117301834346 0.0543894700877745 
281.162571141722 0.0873052633686937 
282.165082572447 0.032016996617820564 
292.131146424102 0.03919572070900484 
305.163003087036 0.031248148519902694 
END IONS

BEGIN IONS
TITLE=Vobasine.mgf
PEPMASS=353.1853905
CHARGE=1+
RETENTION_TIME=905.552
PRECURSOR_MZ=353.1853905
SMILES=O=C(CC/1C2([H])C(OC)=O)C3=C(C[C@@]2([H])N(C)CC1=C\C)C4=C(N3)C=CC=C4
INCHI=InChI=1S/C21H24N2O3/c1-4-12-11-23(2)17-9-15-13-7-5-6-8-16(13)22-20(15)18(24)10-14(12)19(17)21(25)26-3/h4-8,14,17,19,22H,9-11H2,1-3H3/b12-4-/t14-,17+,19?/m0/s1
COMPOUND_NAME=Vobasine.mgf
IONMODE=positive
SKELETON=Vobasine
103.053372005465 0.16588175364105692 
104.055418757308 0.03132642650921757 
105.067909218724 0.05498916114694517 
106.064988758227 0.0604722633120568 
107.070153859599 0.04860937538631053 
108.079013525718 0.06286637399197734 
110.059274768837 0.06346557806983047 
110.093855542963 0.04495169281566206 
115.053146009974 0.1461718813048794 
116.054762430237 0.04466620670931302 
117.064195280842 0.12754234896395306 
118.064867652117 0.08196841221881841 
120.079674915004 0.16907346582530855 
121.084697152403 0.053439720629553794 
122.094465880724 0.046647092822286185 
123.067296301596 0.03368337207517737 
124.07452796727 0.06047594856874426 
127.052998507198 0.1270052811127796 
128.053647592606 0.19150828226453892 
129.066450934731 0.11215626234735923 
130.064201448112 1.0 
131.067544560829 0.1676833310242168 
132.075945402117 0.03248148858246835 
136.074555286034 0.12515262327300242 
137.078493144917 0.026696293331504698 
138.090242581971 0.5266245801023195 
139.052957234005 0.06667011867925998 
139.093607418547 0.0761419747471284 
140.052312708739 0.03985075643392171 
142.065207510193 0.02961983078607458 
143.072772958593 0.0694869143065863 
144.078770574485 0.1395723329587433 
145.067030795213 0.07875892683459308 
148.074764371109 0.04467529856410271 
150.089536328923 0.027494561913945056 
151.05725522838 0.04723957947022802 
152.060480482956 0.07680513435559555 
153.063483387874 0.05192209460660351 
154.063967278307 0.3855397058418782 
155.069529307743 0.13289231540012791 
156.078776524428 0.12390574699453322 
157.083197663446 0.030772467120746265 
158.092783223001 0.02681541575526537 
162.089608957454 0.029659906786330216 
164.068019692452 0.055060627137390565 
165.074975154867 0.1913576065797226 
166.067774561243 0.17135715875106183 
166.082942069285 0.060879647446886814 
167.071946481081 0.40769976073820824 
168.078101500603 0.22057301543096278 
169.083985066322 0.0584352959890879 
172.077992349372 0.026530615386553102 
176.105462290745 0.05388325759897596 
177.066860991852 0.03488903878709339 
178.081105298949 0.23937122990077328 
179.080530774283 0.10988250562001643 
180.083259232856 0.30844828768513166 
180.099698497334 0.3473608197503635 
181.08594308241 0.10113697166130904 
181.098952957631 0.06812756772592139 
182.059132499606 0.05241927771767855 
182.09348102224 0.0833912011930902 
183.070108796573 0.0775652768584073 
184.074028021426 0.07137395232584014 
190.067065790527 0.038514468364403774 
191.072587046586 0.23225336652863282 
192.079455692428 0.1752825169090306 
193.08699351447 0.12925020887008629 
194.072954430542 0.08243084195986615 
194.090138632843 0.0994297648386394 
202.075182804153 0.05539785144870239 
203.075484165211 0.06724660478234361 
204.079777378538 0.9089032536151668 
205.086021483822 0.636400913010682 
206.09361357616 0.36395049254155354 
207.099255374568 0.1122884184511006 
208.096010907167 0.06613039184541328 
210.060222593857 0.032250171084543054 
216.080862837597 0.054402365654900434 
217.087494262113 0.24687847096367593 
218.09455719743 0.4006537831958826 
219.101577450418 0.3184159740483291 
220.109576131532 0.44865639739568974 
221.113803353468 0.14602722331769197 
222.115193977674 0.05213257407715808 
228.080130860911 0.06164202909300234 
229.085777553714 0.05338103641546744 
230.094390269093 0.10769714840435382 
231.100070661127 0.059764927272159 
232.100291556793 0.04767779847430373 
233.084325009325 0.15214936765193637 
234.124399532674 0.3485747619627397 
235.127599239469 0.10730371226635356 
236.076284235333 0.0507440719847253 
236.129946267804 0.03162137766090693 
238.087736927794 0.025267374702438845 
242.094488810043 0.03566374971602531 
243.101555407656 0.04107380916061514 
244.110321615847 0.14925033015701525 
245.114645227695 0.07965033911358847 
246.091755582986 0.0664233930764756 
246.114743632375 0.03298236627999461 
247.098187151885 0.1651927972357776 
248.10518819925 0.2806939198396027 
249.108173850095 0.07971415469774597 
262.121634031864 0.3187329527722693 
263.124752048808 0.1059008889865404 
272.105356199145 0.04678060174177359 
280.133796178601 0.047881000729121034 
290.116219469028 0.09031267303796234 
291.119026908795 0.031101033411283507 
294.149615543204 0.04818281858694197 
322.145039638584 0.028252399965106683 
END IONS

BEGIN IONS
TITLE=angustilobineB.mgf
PEPMASS=339.1704113
CHARGE=1+
RETENTION_TIME=185.154
PRECURSOR_MZ=339.1704113
SMILES=COC([C@@]12COCC=C3CN(Cc(c2[nH]4)c5c4cccc5)CC[C@]13[H])=O
INCHI=InChI=1S/C20H22N2O3/c1-24-19(23)20-12-25-9-7-13-10-22(8-6-16(13)20)11-15-14-4-2-3-5-17(14)21-18(15)20/h2-5,7,16,21H,6,8-12H2,1H3/t16-,20-/m0/s1
COMPOUND_NAME=angustilobineB.mgf
IONMODE=positive
SKELETON=Ulean
106.065253253458 0.09703930093915884 
108.08075517773 0.045085648019599835 
109.088209640442 0.033989043691302574 
115.054778458267 0.0793085046957942 
116.049809716622 0.03751991506737444 
118.064754964622 0.03757317435688036 
122.060246542205 0.0509229759085341 
124.075570791247 0.04545386361780319 
127.053968899559 0.05512797713352389 
128.062269719138 0.16899658636178033 
128.070818655224 0.035811737035524704 
129.070134772445 0.6102269334422213 
129.077865863887 0.09652034953042059 
129.092114917872 0.026712525928950594 
132.080410025044 0.026303934667211107 
142.064250814659 0.10025580400163332 
144.080614016332 0.05767481910984076 
148.075676732681 0.032621863617803185 
154.06513227521 0.12638130175581871 
154.074427699683 0.0275662817476521 
155.073394514821 0.06849607186606778 
156.080850596157 1.0 
156.089265779682 0.1664418129848918 
156.105625524204 0.04582261494487546 
167.073400188726 0.03337961943650469 
170.060327900198 0.08945531400571663 
180.081000204733 0.033956521028991424 
181.089669592559 0.02473690159248673 
192.081124112516 0.027872836259697838 
193.08829735396 0.03828575908534095 
194.096549032793 0.04162723070641078 
206.096550660542 0.040415738668844424 
208.112642521756 0.037752434463046144 
218.096322067533 0.029861291955900367 
220.112112705673 0.027410110249081257 
END IONS

BEGIN IONS
TITLE=undulifoline.mgf
PEPMASS=341.1856402
CHARGE=1+
RETENTION_TIME=170.925
PRECURSOR_MZ=341.1856402
SMILES=CN1CC[C@H]2[C@H]3[C@@H]1C4=C([C@@]2(COCC3)C(=O)OC)NC5=CC=CC=C54
INCHI=InChI=1S/C20H24N2O3/c1-22-9-7-14-12-8-10-25-11-20(14,19(23)24-2)18-16(17(12)22)13-5-3-4-6-15(13)21-18/h3-6,12,14,17,21H,7-11H2,1-2H3/t12-,14-,17+,20-/m0/s1
COMPOUND_NAME=undulifoline.mgf
IONMODE=positive
SKELETON=Ulean
107.072830781891 0.03116383066908236 
108.080574547462 0.031494379655306506 
109.088333263813 0.043424571262406474 
110.096334401615 0.030983075087985 
115.054221932793 0.026204583948044258 
120.08075581438 0.09488226010673308 
122.096499517727 0.110030634704931 
127.05424310572 0.11718035348039173 
128.049423230723 0.06621451770472878 
129.069586143421 0.028130029333253502 
130.065055412596 0.1747407954285605 
130.072614411562 0.03022256927593623 
142.06511286631 0.08295246202706259 
144.08063665372 0.047544606685496954 
154.065181303175 1.0 
154.073068420047 0.15606356198822988 
154.094006241816 0.05018998239386389 
165.069769044787 0.062019346651707 
166.065163092377 0.06057570533115825 
167.073033092796 0.19303574508023952 
167.082783439883 0.029339662378763686 
168.080724973927 0.20517508246156463 
168.088795998716 0.02919832981337102 
170.060039609209 0.026974140890971395 
179.072812001016 0.024945844301153607 
180.080748217106 0.19719392455488885 
180.089464706308 0.031652184154533726 
181.088496257569 0.10304302112131986 
182.059973243228 0.15137749357601607 
182.095712479591 0.054120337595938116 
186.09085629106 0.024998576976705846 
191.072638858285 0.14102083545030009 
192.080706049863 0.3425611299184428 
192.089594320912 0.049736090667595385 
193.088582275244 0.15866042138636058 
194.059989143279 0.05640311994167923 
194.096359063255 0.49300273093981517 
194.105041285896 0.10860416804576947 
194.128445220459 0.025313398920301277 
204.080619721594 0.10822417514893959 
205.088626710064 0.12098208143122552 
206.096267836779 0.10241125499691994 
207.104124025063 0.029829702410341448 
208.07545983863 0.02585118226180733 
208.111819211428 0.03594562462852065 
214.085969850639 0.059776563558263766 
217.088396508672 0.09405603521395874 
218.096258068411 0.05617740385176215 
220.07561569854 0.22633898761976762 
220.08524389663 0.10544002480347169 
220.111676937487 0.13684428667742402 
222.127167575489 0.028962227410225496 
224.106884076627 0.02640033573511556 
232.1121720988 0.027538093806538825 
252.101446255911 0.03458168666699554 
END IONS

BEGIN IONS
TITLE=lyaloside.mgf
PEPMASS=527.2020874
CHARGE=1+
RETENTION_TIME=199.88
PRECURSOR_MZ=527.2020874
SMILES=C=C[C@@H]1[C@](C(C(OC)=O)=CO[C@H]1OC2C(O)C(O)C(O)C(O2)CO)([H])CC3=NC=CC4=C3NC5=CC=CC=C45
INCHI=InChI=1S/C27H30N2O9/c1-3-13-16(10-19-21-15(8-9-28-19)14-6-4-5-7-18(14)29-21)17(25(34)35-2)12-36-26(13)38-27-24(33)23(32)22(31)20(11-30)37-27/h3-9,12-13,16,20,22-24,26-27,29-33H,1,10-11H2,2H3/t13-,16+,20?,22?,23?,24?,26+,27?/m1/s1
COMPOUND_NAME=lyaloside.mgf
IONMODE=positive
SKELETON=Strictosidine
181.075950442363 0.02698384699156127 
182.083890101259 0.7802040356167517 
182.091859894583 0.09173785783292615 
182.11439828472 0.039970770933616014 
206.083699640647 0.044098421337429895 
207.09162630319 0.2031509217485911 
207.101075533883 0.03812420797672307 
208.099105506856 0.08062655374748678 
219.091900831873 0.0385181524825753 
235.086624505516 0.49871486648550906 
235.096877547768 0.08031919094959127 
235.122233559269 0.06102717650752677 
245.107068236957 0.03694411122812068 
247.086457224384 0.09397320029582461 
259.122721435948 0.025262678753169038 
261.06577789652 0.15707444139091936 
261.075599345443 0.030276806235936888 
261.101992944611 0.0266518975862083 
263.081587648051 1.0 
263.091037477394 0.10868384477151748 
263.118218156673 0.10477440806005778 
267.112685727578 0.06319831892847094 
277.097028971029 0.11195837916263875 
277.107172387177 0.033112678096217305 
277.133511146577 0.10674571633488592 
287.117477603661 0.06121279935289499 
287.127558525137 0.029344357637879445 
295.107546171942 0.061444227591640616 
305.128321703438 0.1896459573833144 
305.139129360684 0.04033854308644383 
315.112447019882 0.05192318467245519 
333.123412114941 0.051794104983303606 
337.154350455181 0.03172219066672446 
365.149398225724 0.07394310435519734 
END IONS

BEGIN IONS
TITLE=Pauridianthoside.mgf
PEPMASS=541.1816895
CHARGE=1+
RETENTION_TIME=207.948
PRECURSOR_MZ=541.1816895
SMILES=C=C[C@@H]1[C@H](C(C2=NC=CC3=C2NC4=C3C=CC=C4)=O)C(C(OC)=O)=CO[C@H]1O[C@@H]5O[C@H](CO)[C@@H](O)[C@H](O)[C@H]5O
INCHI=InChI=1S/C27H28N2O10/c1-3-12-18(22(32)20-19-14(8-9-28-20)13-6-4-5-7-16(13)29-19)15(25(35)36-2)11-37-26(12)39-27-24(34)23(33)21(31)17(10-30)38-27/h3-9,11-12,17-18,21,23-24,26-27,29-31,33-34H,1,10H2,2H3/t12-,17-,18+,21-,23+,24-,26+,27+/m1/s1
COMPOUND_NAME=Pauridianthoside.mgf
IONMODE=positive
SKELETON=Strictosidine
109.028295738995 0.058713127469937315 
127.039018337319 0.03908010107552419 
140.049509695404 0.04940655268781695 
167.060381408707 1.0 
167.068809313036 0.1064370593854188 
167.090187126589 0.03986032804599778 
168.068110482226 0.23304863064995573 
168.07657857615 0.03485657390686423 
169.075955610168 0.0826739973704467 
193.075877577018 0.0681691581502668 
194.083675620421 0.1671610050211315 
194.092875473898 0.028812878282151348 
195.055018427649 0.11264598444315022 
197.070874197991 0.052199187478443855 
206.083482463167 0.03552051955203918 
219.091629762232 0.031375637695057926 
221.070864832387 0.740062649414501 
221.080423178781 0.07235732970236088 
221.103731613218 0.02997044472946779 
230.083500888713 0.029114146173451164 
234.078719334475 0.0322385314242972 
235.086466216637 0.02690834459732777 
243.091589382087 0.07034580186945247 
244.099329119852 0.057947775122571335 
245.107070238692 0.1755444447966496 
247.086670136328 0.040638284081645784 
247.122919023014 0.03672988696895017 
248.094516975848 0.05379196439174193 
249.065811803543 0.5507816510358537 
249.076344549235 0.07489486281424652 
249.101536525674 0.04842167664064396 
250.0736090481 0.5772072895115455 
250.084395385558 0.0715229503985254 
255.091305440288 0.04963487626007313 
256.0992993261 0.06686620929408464 
257.107092930646 0.05729180613597127 
258.078510852798 0.11608730230447843 
262.110159204631 0.032243451783085984 
263.08123342723 0.0719484195003281 
263.117600774764 0.13114194430816206 
271.086205301298 0.07157759476776616 
272.094089796759 0.1090021275820647 
273.102268372637 0.8139763737618082 
273.11316439773 0.0883074770056021 
273.136860051706 0.03833477080353717 
275.081268005505 0.2143160204516605 
275.117608427016 0.04881293978663621 
277.060646574019 0.394284435533128 
277.096843308736 0.029145380989531462 
278.068515790457 0.6963395842391445 
278.079685690959 0.09303277195509035 
278.103460538976 0.0328788782717429 
284.09411139423 0.031097774625804344 
285.101838972529 0.03848562238044119 
286.073636757395 0.08408292318515642 
289.097026623249 0.029209478124983736 
290.104733079393 0.04094828087868145 
291.112790774722 0.8528897882211341 
291.123747320744 0.09053304044582235 
291.148224240902 0.03962003948587928 
292.084222028295 0.02701587336131945 
293.091937338748 0.10836825289887195 
299.080767801257 0.05405506165351496 
300.089281061211 0.11751543644292123 
301.097223519684 0.9094199795899732 
301.108694103031 0.11204371360294692 
301.13302360728 0.04104937059621974 
303.076279681662 0.03267080859946245 
311.08159742373 0.03397129727625023 
317.091526716411 0.04564636719029061 
318.099884770761 0.026586401736886648 
319.107719530379 0.5227067461430774 
319.119418414222 0.06577970891346649 
327.076100209258 0.03221377823469827 
329.092034670441 0.6019415546535949 
329.103548387939 0.08619938713146394 
329.129567099527 0.025994619776909037 
333.12360959158 0.03966109136396603 
347.102199466352 0.03372555847255031 
361.117808730917 0.03412603782904308 
END IONS

BEGIN IONS
TITLE=Strictosidine.mgf
PEPMASS=531.2329773
CHARGE=1+
RETENTION_TIME=1017.728
PRECURSOR_MZ=531.2329773
SMILES=[H][C@]1(NCCC2=C1NC3=CC=CC=C23)C[C@]4([C@H]([C@@H](OC=C4C(OC)=O)O[C@@H]5O[C@@H]([C@H]([C@@H]([C@H]5O)O)O)CO)C=C)[H]
INCHI=InChI=1S/C27H34N2O9/c1-3-13-16(10-19-21-15(8-9-28-19)14-6-4-5-7-18(14)29-21)17(25(34)35-2)12-36-26(13)38-27-24(33)23(32)22(31)20(11-30)37-27/h3-7,12-13,16,19-20,22-24,26-33H,1,8-11H2,2H3/t13-,16+,19+,20-,22-,23+,24-,26+,27+/m1/s1
COMPOUND_NAME=Strictosidine.mgf
IONMODE=positive
SKELETON=Strictosidine
103.053783636818 0.11571544779478996 
105.033419944149 0.04479193366334511 
105.067961663963 0.02735468933936439 
107.049946153975 0.03942030224878389 
109.028228542567 0.07677158024440506 
115.052795222914 0.10108751727808322 
116.053754430601 0.03427922780599334 
117.06445992016 0.1066032220421273 
123.04327668275 0.051969934504064244 
127.039697706675 0.036190920140070144 
127.053017711621 0.07148859949426363 
128.058902711665 0.11246944004563371 
129.069164569947 0.19081283653232248 
130.064463477187 0.2886756436581162 
131.052159563099 0.06218780612382804 
132.078724637475 0.024797265053020295 
133.028533635154 0.057320524638569986 
137.058684312722 0.02571278209995237 
143.073728880589 0.2316747460832461 
144.079959087691 1.0 
145.079809890709 0.04393021984525921 
151.038844424241 0.028456548708116664 
152.060856303312 0.08508479659163884 
153.066616800148 0.026714573055417558 
154.065038280113 0.12762748033117996 
155.071992681591 0.16143392012795332 
156.080142216433 0.4283843838749696 
157.087096270335 0.08272548189890679 
158.058843563158 0.02823469485716629 
158.094886549965 0.10375811708738353 
159.043608551883 0.04736494667212233 
165.054568960683 0.2306633432473569 
165.065766019394 0.04342477474412591 
166.065904516091 0.06903765154148929 
167.073837341099 0.527588659985031 
168.079946143769 0.46160991657120803 
169.08726586221 0.15080900576106984 
170.095144790307 0.15829450522000837 
177.067890820123 0.03877464020110151 
178.068195048269 0.047224321948827974 
179.073835683169 0.09851199935501369 
180.079798684539 0.767361852229164 
181.087308499705 0.2624538513232006 
182.094730182314 0.19760360092497745 
191.0711752625 0.11935473873860437 
192.079364445974 0.15506188419886083 
193.087378845316 0.2161724723201145 
194.095223856384 0.8479854896722966 
195.098261272998 0.12285602638105828 
196.07391084437 0.0290475803226982 
196.107915416752 0.02669419586891865 
203.07263408851 0.04616769084650724 
204.080019978451 0.3836058369396332 
205.086250344793 0.15528790902337702 
206.094905995223 0.18454379335831878 
207.076661695435 0.04447887763062603 
208.078274012323 0.14789118838726392 
210.091108572286 0.03701123879312996 
217.087343194607 0.15499640690433603 
218.0940351752 0.08842032881252615 
219.101134872599 0.035949283291592526 
220.077510664109 0.03987133828133519 
220.103435495321 0.051635883794346304 
221.08306818217 0.03222088730355646 
221.088271313517 0.028259301271051765 
222.090690188001 0.5155633237672792 
223.097508817322 0.20056837087830914 
224.097778478649 0.025207884584734143 
230.095299785999 0.0999892579954534 
231.103102236542 0.12458814548728621 
232.105666789708 0.0953847827971341 
233.084192059862 0.03589284699004838 
234.092104421634 0.03341517218431322 
238.088304928676 0.0497957621044449 
241.086825208934 0.03327594555271691 
244.109547836021 0.051135192204986336 
246.123750073929 0.08068159999478045 
250.085558846746 0.18342089270951104 
251.092411628795 0.16589313359884647 
252.102639775474 0.025175833332556616 
254.11256864951 0.05328721650195593 
256.109596757658 0.03798420575808726 
258.090958292802 0.0370601020979764 
259.099108189451 0.03481252988421005 
274.119799626272 0.09585105802919401 
282.110456923282 0.06627546507520335 
283.120307423745 0.04141327031357332 
302.115843955938 0.05209484234651982 
320.126291263892 0.03669932453529762 
334.140170886455 0.05445292205825195 
352.152848249965 0.06424512135901969 
514.202182761021 0.035357808947973274 
END IONS

BEGIN IONS
TITLE=alstofolinine-A.mgf
PEPMASS=297.1589457
CHARGE=1+
RETENTION_TIME=223.799
PRECURSOR_MZ=297.1589457
SMILES=CN1[C@@]2([H])CC(C3=CC=CC=C3N4C)=C4[C@]1([H])C[C@]5([H])[C@@]2([H])COC5=O
INCHI=InChI=1S/C18H20N2O2/c1-19-15-7-11-10-5-3-4-6-14(10)20(2)17(11)16(19)8-12-13(15)9-22-18(12)21/h3-6,12-13,15-16H,7-9H2,1-2H3/t12-,13-,15+,16+/m1/s1
COMPOUND_NAME=alstofolinine-A.mgf
IONMODE=positive
SKELETON=Macroline
103.054308396568 0.14397760691102238 
107.072618360295 0.14680191557094432 
108.08165658719 0.04910465653255804 
109.028217426953 0.06304596355171307 
113.038284181523 0.05561635504840252 
120.080848488018 0.04822270731325949 
128.050346549005 0.11858204415117453 
128.061176407902 0.06535154951080838 
131.073670957897 0.0898185050926593 
131.083394625741 0.06025017314654674 
142.063887419075 0.05234795366159142 
143.072671638975 0.2535718943381592 
143.080606860022 0.048324854102839154 
144.080687403919 0.9734787058766496 
144.08805950164 0.23879224622110365 
144.099826982379 0.06611546547458996 
154.061599518741 0.05922042061808368 
154.066760213396 0.05170962726663795 
156.078076714217 0.057314249545426306 
156.080990099226 0.07002572105323172 
157.088374314392 0.1107273019841923 
158.096702469282 0.1765861031659815 
158.105689680192 0.06869316975280615 
166.080549990288 0.04812597739888481 
167.07349427552 1.0 
167.082250557865 0.23943954004811915 
167.093313962211 0.046683290555951204 
168.081001254972 0.4426827461372332 
168.089962211704 0.09765410611658527 
168.110912921426 0.047801647685981476 
169.08924188223 0.3338117481098406 
169.096710817029 0.07661027426458522 
170.100554613871 0.05650872833847368 
180.080975973716 0.1814301324380468 
182.090433187164 0.08404275052535724 
182.097106145369 0.7307305475573194 
182.105756340777 0.10997922696638829 
183.069308339385 0.07268784209672217 
183.097651881408 0.1524658503572293 
183.104925448471 0.06485966082622824 
184.11137830309 0.07753107476949261 
193.088105572142 0.1530655758263523 
194.094252728301 0.13139536656882153 
197.08516729239 0.05042960599971277 
197.10885460517 0.12442403025984841 
198.111931862195 0.050807285105391224 
204.079572409517 0.11683180170048914 
204.089302533676 0.057081096311813545 
205.083414950867 0.04622729435959903 
207.108198521495 0.06815988066487365 
208.110536120842 0.07306586260209844 
220.113396062783 0.09327936486910622 
222.117129456565 0.04826622439473817 
222.128772970177 0.11015830248787065 
223.112610374035 0.052352323577723174 
223.120529454469 0.05193536074681867 
237.099629351624 0.0712944988901096 
238.14148968845 0.0468353499813482 
END IONS

BEGIN IONS
TITLE=alstolactone.mgf
PEPMASS=323.1746739
CHARGE=1+
RETENTION_TIME=245.693
PRECURSOR_MZ=323.1746739
SMILES=C/C=C1C(OC[C@@]([C@@]/1([H])C2)([H])[C@@](C3)([H])N[C@]2([H])C4=C3C5=CC=CC=C5N4C)=O
INCHI=InChI=1S/C20H22N2O2/c1-3-11-13-8-17-19-14(12-6-4-5-7-18(12)22(19)2)9-16(21-17)15(13)10-24-20(11)23/h3-7,13,15-17,21H,8-10H2,1-2H3/b11-3+/t13-,15+,16-,17-/m0/s1
COMPOUND_NAME=alstolactone.mgf
IONMODE=positive
SKELETON=Macroline
103.053729158201 0.0637322064650808 
104.04944344508 0.8814140347959195 
104.056243574808 0.14417051565809028 
104.069624195527 0.03431696696985423 
105.069904123991 0.04209827607725117 
106.064638158559 0.042840569755654014 
108.043779017843 0.027879970502258933 
110.059642044731 0.0670434516031405 
115.054023861525 0.10122855813439649 
117.057044117109 0.09961539276492087 
117.069566186117 0.03704601018066448 
118.065281060382 0.05783001271450133 
122.059889275957 0.547725064494158 
122.067440590742 0.08020711862650562 
127.054962245917 0.04275131961483427 
128.049586640657 0.05530773784145957 
128.062544378099 0.0493639381174528 
129.057520616533 0.02590527286206597 
129.068981312264 0.056794088889808844 
130.064782378931 0.20214464891698933 
130.072210269494 0.03217474312873736 
131.072892198586 0.2942522149944891 
131.080649025511 0.04361922732428519 
132.080578627552 0.0932592566554554 
134.05975411875 0.06953111402963959 
143.072722755861 0.18354737894002873 
143.081121115706 0.0249760891193337 
144.080497852641 1.0 
144.088666914843 0.17181001171752572 
144.108009170344 0.03737747396013543 
146.096612628911 0.0724624673579276 
152.061857187389 0.026492202462480834 
152.069684076009 0.047116701142345466 
154.065385168271 0.05397579553817884 
155.072735585313 0.04989303333266787 
156.080846472605 0.10350792124088438 
157.088596427466 0.17959854706110814 
157.096940637228 0.027060441831676958 
158.096101433797 0.18837046291881399 
158.104535664752 0.027396265848575078 
167.072721410467 0.8163273254732297 
167.081230491154 0.13082929143814717 
167.093286018485 0.033439934606236885 
167.102542301424 0.03377217000075814 
168.080485864993 0.2522795407004281 
168.08916689288 0.04629580071167404 
169.088598533294 0.16824845710671546 
170.096214095126 0.17671197190145424 
172.111709348899 0.024694841557422922 
179.073121536966 0.026947724795041286 
180.080564411545 0.18638667736802841 
180.088144745847 0.03642846093539586 
181.088384261717 0.4830391050833143 
181.098151568019 0.03728804010144656 
182.096335753966 0.3258742245421843 
182.104065446957 0.05570110229496688 
191.072818587744 0.027414270199749093 
192.08072867498 0.07601928204771448 
193.088534054009 0.2924891358438095 
193.09791626412 0.05612911593859072 
194.096279404978 0.42683919652582164 
194.10601343359 0.11254283535216818 
195.091482391984 0.036686915233677495 
197.083650530573 0.029461879338267837 
197.107098577026 0.09110086564185574 
204.080484640723 0.09645811544904384 
205.088458705261 0.09488244077272716 
206.09658671254 0.12339337192470068 
207.104624624134 0.09059507810030336 
208.111913033648 0.215544172940734 
208.121702388065 0.029814740125562594 
217.088027059197 0.06579834661266505 
218.096305957543 0.17512391464075872 
218.104982792753 0.03095212520544251 
219.103725023053 0.08117200487513739 
220.075959121704 0.052461507125864996 
220.112007093176 0.11484354647504812 
221.084168968811 0.028079463612410167 
230.096689116138 0.0660400458412827 
231.103719141018 0.08980314385366357 
232.111750954857 0.08708731608157222 
233.120452185085 0.02926329256960427 
234.091464093642 0.030115216824441536 
234.12782610183 0.03838764053957694 
236.107224624422 0.0836916954501535 
244.111597722245 0.09543636239598967 
245.119912173173 0.05333985001028208 
246.126574363668 0.03704347487407059 
248.142939164001 0.025373532109535534 
END IONS

BEGIN IONS
TITLE=alstonerine.mgf
PEPMASS=337.1906002
CHARGE=1+
RETENTION_TIME=253.594
PRECURSOR_MZ=337.1906002
SMILES=CC(C1=COC[C@]2([H])[C@@]1([H])C[C@@]3([H])C4=C(C5=CC=CC=C5N4C)C[C@]2([H])N3C)=O
INCHI=InChI=1S/C21H24N2O2/c1-12(24)16-10-25-11-17-14(16)8-20-21-15(9-19(17)22(20)2)13-6-4-5-7-18(13)23(21)3/h4-7,10,14,17,19-20H,8-9,11H2,1-3H3/t14-,17+,19-,20-/m0/s1
COMPOUND_NAME=alstonerine.mgf
IONMODE=positive
SKELETON=Macroline
103.053769953769 0.04329927629832131 
105.070701057751 0.09509417158036568 
106.064529664909 0.07265409683973904 
107.073159499727 0.2588105867287731 
107.080108122795 0.034701752344618905 
108.080538747158 0.1570843914264901 
108.087857017016 0.03883625328877944 
115.054249372781 0.10981097602865843 
117.057215506392 0.11371892176929062 
117.069133455015 0.056446007695635576 
118.064954444189 0.05294924061765614 
120.080372468292 0.060463285431086186 
121.088704275142 0.15263195192734388 
122.096719366146 0.05911348555845967 
123.044862190311 0.08717683931817437 
128.060870228766 0.03392281216868506 
129.068840563489 0.03623469027140206 
130.064879791138 0.09268614445191961 
131.073054622602 0.36335109836413587 
131.081060968028 0.06333825580035167 
132.081048785782 0.1264671623380522 
133.065970912928 0.0334493083892578 
135.068799218394 0.0327174988751152 
136.075923331024 0.05313494718456962 
136.111749096297 0.09064151545966166 
142.065420771359 0.0371622637819277 
143.073433182152 0.20537447368697936 
143.083368403549 0.0442759919565321 
144.080936157194 1.0 
144.089426637225 0.18858571498420829 
144.100819699585 0.04212060745636159 
146.096286854321 0.21985930739279866 
146.10416994624 0.050131891582767076 
148.075249084552 0.11601557447108753 
149.083776933255 0.035835580524112766 
150.090739069725 0.042371640895922005 
154.065678788254 0.04314067837207043 
156.080644107313 0.08030077593842007 
157.088467088379 0.20220093691918348 
157.097353406168 0.04302583800049638 
158.09663165308 0.4436632314613724 
158.106219901983 0.07024956660215471 
162.091733261902 0.06557026244011187 
164.106784822492 0.10308568125313715 
167.073483963584 0.5140070593871096 
167.082269869992 0.08612031408888045 
168.081198209449 0.14393122327431532 
169.088662720082 0.08905720727774163 
170.096724542084 0.10718029288472454 
172.110963978422 0.13934630421960228 
172.119096632607 0.04133389985028356 
174.093120250048 0.03800572623615092 
180.082241762303 0.0926199201471046 
181.089239182127 0.2631342911307088 
181.096922337542 0.045077429828540946 
182.096280079563 0.33918789196897237 
182.104199013869 0.06600978758090043 
183.091485705192 0.11757230982329252 
183.104168405093 0.037799842918424656 
184.112737252686 0.07443782063858798 
192.081006777865 0.06672841412595368 
192.102072009828 0.08226964927731954 
193.088440313147 0.20078871909197196 
193.098134950947 0.04100912224325858 
194.096747292438 0.436731651070946 
194.103614263839 0.07893804066419884 
195.104017776048 0.1037033930981896 
196.112563627337 0.04354579163110463 
197.106922188323 0.2076995038128489 
204.080709116385 0.07754210039975962 
205.088807920031 0.09551215834912093 
206.095722170215 0.1331365996975963 
206.106036893701 0.041161097739027964 
207.105100452944 0.14365447376124962 
207.115434986489 0.03595917859580955 
208.112536640681 0.15643121553783113 
210.128386634012 0.03705324124647758 
211.123160332197 0.04588641850913617 
217.089290882857 0.041620459225324175 
218.096951896957 0.11132590342020683 
219.104228842524 0.1218567438313917 
219.112597079802 0.033014394193056844 
220.112457386007 0.08252640771519341 
221.107111891496 0.040271061649876434 
222.091686938503 0.08455983427831909 
222.127985198126 0.0577385266391908 
230.097319298455 0.0823801881636743 
231.10340307322 0.06548064300705382 
231.11173518003 0.03200171935625024 
232.111439166876 0.07139224531958178 
234.091772019812 0.03530643595026617 
234.128070770744 0.05234697079508158 
235.123083234027 0.0430778890662435 
244.112470083988 0.07421525746091064 
245.1207571098 0.043474832597954725 
246.128989350724 0.03325044979919182 
END IONS

BEGIN IONS
TITLE=alstophylline.mgf
PEPMASS=367.2008216
CHARGE=1+
RETENTION_TIME=234.857
PRECURSOR_MZ=367.2008216
SMILES=O=C(C)C1=COC[C@@]([C@@]1([H])C2)([H])[C@@](C3)([H])N(C)[C@]2([H])C4=C3C(C=C5)=C(C=C5OC)N4C
INCHI=InChI=1S/C22H26N2O3/c1-12(25)17-10-27-11-18-15(17)8-21-22-16(9-20(18)23(21)2)14-6-5-13(26-4)7-19(14)24(22)3/h5-7,10,15,18,20-21H,8-9,11H2,1-4H3/t15-,18+,20-,21-/m0/s1
COMPOUND_NAME=alstophylline.mgf
IONMODE=positive
SKELETON=Macroline
105.069776274613 0.10121304194070214 
107.072816882148 0.2020166158547587 
108.080951958776 0.26234260251134894 
117.056799205595 0.08395800877807069 
120.080943144835 0.14838903741247964 
121.089091918037 0.1931280717834619 
122.09674604354 0.2146817201884285 
123.044505085713 0.0661127189233718 
131.073030601221 0.411686773198119 
131.079860057131 0.0701773966225976 
132.080361212308 0.1633871764284985 
133.065094798992 0.06555679506596956 
134.059882912686 0.11732215230787789 
136.075298602167 0.06156325747460865 
136.113244150089 0.11019344954258974 
144.0802208552 0.06007194430038859 
145.088445053964 0.13829678209578758 
146.060333391411 0.06055327414613828 
146.096179952446 0.3263449862204704 
148.075325089355 0.21716657198502554 
148.082855577369 0.0552582334364693 
149.084609099885 0.0932174608755182 
150.091455771757 0.2068308937775088 
151.075882662455 0.1101449402371543 
156.080281161674 0.0570207553842236 
159.067985401753 0.5424428069618328 
159.078148343953 0.07020239876195591 
160.075750350509 0.12849187095390635 
161.082980587604 0.09188971839858462 
162.090426724918 0.06896213799737504 
164.10689022588 0.16491735890803028 
168.081364691468 0.11526785281627192 
169.08950402153 0.059439828356447 
172.076489478546 0.051603436170311476 
173.083227491591 0.1021264190647241 
174.091879949285 1.0 
174.101435206853 0.14883644682998648 
180.080742271404 0.051768398739273566 
181.089121217118 0.1270149920044705 
182.059664303221 0.09442106901930784 
184.07677145761 0.058866428776895345 
185.084223605346 0.06237492486470492 
186.091255845168 0.08599390463307685 
187.09832353368 0.12938447310439966 
188.107842422386 0.2414914368961468 
192.102208156588 0.07037447534170449 
194.096288810249 0.11554349495884698 
195.10462252515 0.0517792759586645 
196.075113296264 0.1566182982667589 
197.084017618428 0.1491284305770494 
198.091610865949 0.07943339481625747 
199.097388604758 0.06278949642082776 
200.105857933374 0.08810789995432598 
202.12339047384 0.09102412886875888 
206.096586482193 0.09204112310641013 
207.104075475505 0.07849836635505925 
208.075363341624 0.0565461786936408 
210.092178418108 0.11285130583338575 
211.099358368558 0.06693722246336542 
212.106558996057 0.13997073976433033 
213.1026799663 0.08897668563392537 
218.096846247265 0.055842407133806296 
222.091292924209 0.14846816789477862 
223.100393703322 0.11946450057066739 
224.107971109379 0.15812471582619955 
226.110601791441 0.06611472940468102 
227.11899174322 0.08670850186149949 
232.11209025494 0.06076767393498619 
237.115215345395 0.133759074230063 
238.124764215284 0.09483399094974106 
248.105545585491 0.06596404640809472 
250.123606414117 0.09960357432646298 
251.118644111772 0.07131775193135083 
262.121923348564 0.11698691743726525 
END IONS

BEGIN IONS
TITLE=macrocarpineD.mgf
PEPMASS=327.2060174
CHARGE=1+
RETENTION_TIME=196.525
PRECURSOR_MZ=327.2060174
SMILES=C[C@H]1[C@@H]([C@]2([H])C[C@@]3([H])C4=C(C5=CC=CC=C5N4)C[C@@](N3C)([H])[C@]2([H])CO1)CO
INCHI=InChI=1S/C20H26N2O2/c1-11-15(9-23)13-7-19-20-14(12-5-3-4-6-17(12)21-20)8-18(22(19)2)16(13)10-24-11/h3-6,11,13,15-16,18-19,21,23H,7-10H2,1-2H3/t11-,13-,15-,16+,18-,19-/m0/s1
COMPOUND_NAME=macrocarpineD.mgf
IONMODE=positive
SKELETON=Macroline
103.054051437231 0.04542409907004859 
105.069971278278 0.058317267202330825 
106.065086590329 0.039943891835294655 
107.049004827261 0.02918770880912096 
107.085155213475 0.0367410349597999 
108.080655932262 0.14097887692622857 
109.064633061488 0.07489542156364364 
110.096499032404 0.06831304992197715 
115.053940824278 0.06503906200603445 
117.057015882091 0.08053766214715843 
117.069566516916 0.0841338578694325 
118.064916795602 0.0562202229657787 
119.085936580679 0.04126596180547652 
127.054301115904 0.043374222616762395 
128.061864215117 0.06318087264192698 
129.069659066763 0.17674723126376782 
129.076888425165 0.030620888625862108 
130.065026709505 0.7536615098243032 
130.072654214907 0.12273480830658808 
130.0914820305 0.03096662974175323 
131.072981995806 0.15612093667883167 
132.080901061954 0.08256410645503127 
142.065862073145 0.030916199414765415 
143.072933966733 0.15561600113303845 
143.084434610023 0.04625059117798062 
144.080816201897 1.0 
144.088389574516 0.14552013545879205 
144.108326350786 0.04314402992435452 
154.064961998449 0.11895658034835874 
154.073888605768 0.024996339122451614 
155.072935236092 0.17907577700387206 
155.082744254267 0.030962646403488146 
156.080610891934 0.30020586903795426 
156.089178641943 0.043026489831738735 
158.09638235466 0.07076843021064905 
165.069984917896 0.04974078584308936 
166.06485213206 0.02862060157259666 
166.122709839506 0.02809720357008273 
167.072952066791 0.5151850545148294 
167.082380364306 0.10096169166685635 
168.080917680291 0.7478129576096936 
168.089450787982 0.11818956643575952 
168.106006652358 0.03082228747309666 
169.088768277835 0.12885934895813578 
170.096653560023 0.12989052774806084 
179.085693920336 0.031118401252412137 
180.080905325303 0.684569559202523 
180.089590214701 0.1160742873618161 
180.111853928183 0.030449036032139856 
181.088595246441 0.30821946044102516 
181.096701418199 0.06028533347496315 
182.096004576816 0.301581638201605 
182.104423586204 0.048175207449727746 
191.072778203093 0.06868520752560085 
192.080649691487 0.112603724863871 
192.090559958755 0.028548193334800215 
193.088548649934 0.38899119113195096 
193.097839592953 0.0703068687926312 
194.09641382739 0.35130223547472544 
194.105353612112 0.06364995182057527 
195.104188771596 0.08926667374815692 
196.112646938412 0.12006881691059872 
204.080689426409 0.15016439173792417 
204.091346910842 0.02812394884129116 
205.088205829338 0.1239630674992476 
206.096666031881 0.23544399679309658 
206.105736467109 0.04524959724024209 
207.104111409048 0.06917149093189882 
208.112109265949 0.3483938294928895 
208.121148291143 0.06337706153562116 
210.127395702246 0.036501155800372796 
217.088389330307 0.06209844788908363 
218.096714429119 0.17659023715405023 
218.106480323895 0.032264009337450716 
219.103908355446 0.09537635591569993 
220.112134581017 0.10940788625103377 
221.118910134366 0.03497432959784723 
222.128115029093 0.03256580095448373 
232.111741478226 0.0654523807717307 
234.127808759427 0.05750472310108575 
END IONS

BEGIN IONS
TITLE=macrodasine_A.mgf
PEPMASS=455.2534746
CHARGE=1+
RETENTION_TIME=187.17
PRECURSOR_MZ=455.2534746
SMILES=C[C@]1(O2)[C@@]([C@]3([H])C[C@@]4([H])C5=C(C6=CC=CC=C6N5C)C[C@@](N4C)([H])[C@]3([H])CO1)([H])C[C@@]72[C@@H](O)C[C@@H](O7)CO
INCHI=InChI=1S/C26H34N2O5/c1-25-19(11-26(33-25)23(30)8-14(12-29)32-26)16-9-22-24-17(10-21(27(22)2)18(16)13-31-25)15-6-4-5-7-20(15)28(24)3/h4-7,14,16,18-19,21-23,29-30H,8-13H2,1-3H3/t14-,16-,18-,19+,21+,22+,23-,25+,26-/m1/s1
COMPOUND_NAME=macrodasine_A.mgf
IONMODE=positive
SKELETON=Macroline
100.075271131679 0.031038626557778084 
105.069620538665 0.06322070365289872 
107.049101260191 0.04094752180282725 
107.07311708114 0.10234678866883083 
108.080902566789 0.04829278036619835 
109.064977411303 0.08736104676893829 
117.069727939223 0.05705324071069872 
118.064629377276 0.04519660679600055 
120.080854214037 0.04330254877763665 
121.064749263817 0.11289191436600689 
121.071794090181 0.024640321767917896 
122.058628825733 0.02608798774109976 
124.07547621454 0.6126929724428665 
124.082290292236 0.13008913358036966 
124.093470100946 0.02518690891800384 
125.059753024806 0.026031410516479715 
129.069556211366 0.030141742123342488 
131.072141076322 0.03693494014155968 
131.084751471933 0.030885070553190966 
132.080847892632 0.10980621736300103 
133.064854381888 0.027475446368534037 
135.08138174549 0.03629893539644591 
137.059694147668 0.033585861863170016 
143.072921041749 0.03465573191423811 
143.085212108693 0.029161797508081722 
144.080709973763 0.9290002853312825 
144.089410360595 0.2629014598917697 
144.099635817926 0.036215273330252436 
144.109089174488 0.03263482655450533 
145.064585704532 0.04405622211225275 
147.080176167808 0.04404580197181409 
156.080816688025 0.024894994514379137 
157.088655392782 0.10695608324601294 
158.096249310556 0.9667561783062834 
158.10468237078 0.1905601051192796 
158.125115492461 0.03544685380411303 
161.059772775552 0.02805056664686088 
162.091272950621 0.028708690679259616 
163.074881458752 0.03834581587160431 
167.072605116182 0.14073936350998484 
167.083301575076 0.039947545690152804 
168.08027612968 0.08072971829695783 
169.088768871039 0.07955229885414192 
170.096260589347 0.26675879274585185 
170.105315722648 0.05020314571625958 
172.112051538719 0.15699269480443148 
181.087999442699 0.220234746578987 
181.096984438215 0.048525728812647564 
182.096397282568 0.650505480260323 
182.104960449516 0.13761108311717185 
182.117350387079 0.02605580568281356 
183.091198808081 0.07964634344293854 
184.112027922293 0.3329084398811502 
184.121603173804 0.05340133885638395 
185.107405328235 0.026032238108861128 
193.088380408883 0.225219485963563 
194.096221045298 0.46013628565630055 
194.106190521714 0.09337478442629134 
194.117632171667 0.030385806640187474 
195.103900372019 0.641723032290962 
196.111978855076 0.23685092070592878 
197.115828466606 0.08912931074532782 
198.091130697608 0.033254354687661934 
198.128614212043 0.034130154325289326 
199.122869980428 0.08245058380059388 
204.079783581893 0.030880631648599763 
205.088204890091 0.1029245798134795 
206.096230826824 0.039028504350596724 
207.103647419834 0.15063409563996122 
207.1137417295 0.03647323763732156 
208.112037559179 1.0 
208.12118205526 0.1835278457563414 
208.134069365625 0.046488008280437955 
208.14446327027 0.036059196930685565 
209.106256933812 0.033199188131873836 
210.090599219781 0.04086718891507717 
210.127257166827 0.21741434936097645 
210.137220942586 0.05330714379624525 
211.122569555877 0.07009430979453703 
213.138961876364 0.0928262035309229 
213.150545203938 0.02510627508756962 
218.096348929486 0.07303342890144447 
219.104248708014 0.0691797825952432 
220.111581112152 0.4250587825702274 
220.12157402651 0.30018788227949794 
220.135442605986 0.024830517544300174 
221.108055937524 0.030574497703149007 
223.122735717748 0.09974613603700241 
224.107200624133 0.09508103540082839 
225.13869660743 0.03651828499535514 
226.123094234571 0.031343180554137054 
231.104035560085 0.06020813572214113 
232.111499381843 0.11223281226988466 
233.120253528912 0.06461241309574661 
234.128029386594 0.19946217780558992 
234.137416501354 0.025574880464625412 
235.122659465594 0.06928819719720794 
236.107034395225 0.047954031757352925 
236.141963426033 0.0705479432730564 
237.139056772718 0.09206833580764648 
238.12240548863 0.13637133092090153 
238.133471031146 0.02961016448962848 
239.15439236232 0.12356928556394872 
239.163670070649 0.037541226796613716 
240.137851046943 0.027268303757250603 
244.11266236144 0.03825970864610213 
245.119763037066 0.04731232791015808 
246.127116573496 0.1268724888919234 
248.107542753145 0.03227536932720689 
248.143072745852 0.07815970539215936 
249.13769438269 0.06477053966734925 
250.121858854035 0.038443321301268644 
250.145692754811 0.02599317198667501 
251.154019233352 0.41575081343867076 
251.163947489173 0.10244435052524843 
256.112915898504 0.025675715072733148 
257.119680380416 0.025961403724579512 
258.127326066903 0.06786812390637899 
259.135935383005 0.041091090272084164 
260.143223655581 0.09505434554652792 
264.136558014143 0.0485722808841019 
264.142020462403 0.024866649475315836 
269.120375858878 0.024790755492156962 
270.127114019227 0.027395527276974672 
272.143143191218 0.029205453006201112 
276.138270905026 0.03387683582090675 
278.153374365958 0.03408021664863832 
292.154640431106 0.03448171180712884 
302.154687801395 0.027153155562728026 
395.232506117563 0.030285968904720986 
END IONS

BEGIN IONS
TITLE=yunnanensine.mgf
PEPMASS=329.1853601
CHARGE=1+
RETENTION_TIME=183.274
PRECURSOR_MZ=329.1853601
SMILES=COC([C@](C1=CC2=CC=CC=C2N1)([C@@]3([H])/C(CNCC3)=C\C)CO)=O
INCHI=InChI=1S/C19H24N2O3/c1-3-13-11-20-9-8-15(13)19(12-22,18(23)24-2)17-10-14-6-4-5-7-16(14)21-17/h3-7,10,15,20-22H,8-9,11-12H2,1-2H3/b13-3-/t15-,19+/m1/s1
COMPOUND_NAME=yunnanensine.mgf
IONMODE=positive
SKELETON=NorSecovallesaman
108.080724229302 0.1406458014626238 
110.096379003217 0.5781565540603868 
110.103546222795 0.09474189002769247 
115.053940938299 0.34744199594555775 
115.060876190166 0.048821444728149054 
118.065431975876 0.06503007669902217 
130.065087119394 0.1666351315929814 
130.072387270531 0.026013413597445554 
141.0572933306 0.026576411678647056 
142.065179655154 1.0 
142.07264862104 0.14577200506270227 
142.092587149427 0.04016096881390924 
158.060249855363 0.06584482227212696 
160.075437179357 0.040535015162118306 
167.072732054432 0.13435352530569128 
167.081568362749 0.026878842638884758 
168.080984481969 0.06016150034355395 
170.059624907459 0.026396361891253033 
180.080468322816 0.11460701085249478 
181.088834281407 0.09502097836968333 
192.080594945923 0.03730561978532082 
193.088186844056 0.08247323330776425 
194.096457432709 0.19062252352165673 
194.105672738975 0.03407917604438226 
195.104059314875 0.030251139525473383 
196.112504865037 0.04146961361440276 
206.096062403087 0.06935324719338824 
207.104219853735 0.03874074982604752 
224.106214719773 0.028529677287420774 
END IONS

BEGIN IONS
TITLE=Lundurine_A.mgf
PEPMASS=367.1651664
CHARGE=1+
RETENTION_TIME=1738.997
PRECURSOR_MZ=367.1651664
SMILES=O=C1C=C[C@]23CC[C@]4([C@H]5C3)N(C(OC)=O)C6=CC=C(OC)C=C6[C@]45CCN21
INCHI=InChI=1S/C21H22N2O4/c1-26-13-3-4-15-14(11-13)20-9-10-22-17(24)5-6-19(22)7-8-21(20,16(20)12-19)23(15)18(25)27-2/h3-6,11,16H,7-10,12H2,1-2H3/t16-,19+,20-,21+/m0/s1
COMPOUND_NAME=Lundurine_A.mgf
IONMODE=positive
SKELETON=Lunduran
108.04389333551 0.9574409308541638 
108.137574859322 0.039912089498316164 
115.054124623333 0.059981008859490446 
122.059778330604 0.3967306700801083 
127.054222714995 0.036788081104634406 
128.059868755532 0.059421229593908574 
129.067768272575 0.048166619726313545 
130.068041633318 0.03389312988181401 
133.049721569032 0.031891417630464804 
141.068404028342 0.04056848362472992 
142.067334026602 0.028327618224360508 
143.074045413306 0.0458821143151762 
144.080841220375 0.09098937060245282 
146.059882108895 0.024935707616490544 
153.069045093131 0.03779739893755799 
154.065767314082 0.1559368209116992 
155.072953917888 0.18379647354202505 
156.079534713157 0.037668212725661086 
157.086297040455 0.04287475511860701 
158.093225300584 0.03712400880847133 
160.075267547031 0.029760353251390273 
165.067988656396 0.026242626596888002 
166.065085784718 0.024900336435821062 
167.072269438344 0.12334566364464813 
168.080615426899 0.18125547262990277 
169.088601019361 0.36949859407074903 
170.095632133568 0.2108310060181819 
171.093474542781 0.03709789780497507 
172.079407691987 0.05735820107422203 
179.072249884178 0.03919796703335448 
180.080911958915 0.06766880172685194 
181.087496130916 0.14864554613476264 
182.059365382554 0.07721472743555104 
182.093075572553 0.1668730590440511 
183.069035429959 0.149922786921353 
184.073593633707 0.047162268998503024 
184.107669759498 0.1308173718849822 
185.118842387606 0.10705832895384679 
186.091925566994 0.07110263719061365 
187.100264228195 0.03915262016350175 
196.077983436713 0.12788553549955806 
196.107855818762 0.07566000279568172 
197.084737816717 0.3153331942405639 
197.098636471758 0.036902397110409935 
198.091124407386 0.5428234974973671 
199.096383344216 0.03313799509801685 
210.086533826991 0.07129851119579271 
212.106565516632 0.8132280334702001 
213.11423976886 0.38444636584191294 
214.119131982576 0.049296630954667235 
222.091161034689 0.05671884442943829 
225.078758561963 0.05454152064345477 
226.122167268781 0.030535553480685946 
228.138599575928 0.11769208179152595 
240.102766142756 0.34761958487030153 
241.103310049434 0.029615685018754712 
242.080756920984 0.05030031801916411 
256.093176924647 0.05032334921009548 
257.105054871869 0.11787759642716857 
272.1283181853 1.0 
272.274626685081 0.03789411749578263 
273.12964553493 0.03594907586957523 
335.140239584974 0.03665832455707733 
367.165166423915 0.06398144687727746 
END IONS

BEGIN IONS
TITLE=kopsanone.mgf
PEPMASS=307.1806418
CHARGE=1+
RETENTION_TIME=87.388
PRECURSOR_MZ=307.1806418
SMILES=O=C1[C@@H](C2)[C@@]34[C@@](CC[C@]56C4N2CCC5)([C@@H]1C6)NC7=CC=CC=C73
INCHI=InChI=1S/C20H22N2O/c23-16-13-10-18-6-3-9-22-11-14(16)20(17(18)22)12-4-1-2-5-15(12)21-19(13,20)8-7-18/h1-2,4-5,13-14,17,21H,3,6-11H2/t13-,14-,17?,18-,19-,20+/m1/s1
COMPOUND_NAME=kopsanone.mgf
IONMODE=positive
SKELETON=Kopsane
108.080969501182 0.04387136479538597 
110.096423440154 0.20265978760841957 
110.103818689123 0.026683558992044356 
122.09616836783 0.055641378884948835 
128.062354664878 0.02659785289531705 
129.069806732919 0.05190938389003648 
130.065151099601 0.1497355772129379 
130.072212808336 0.027153551191305466 
143.072604239631 0.025923752183232958 
144.080897089642 0.12006645005161844 
154.065410915293 0.04288735631011137 
155.072780042661 0.04571641114067951 
156.081020520907 0.10581778828182464 
167.072902345661 0.14418427552840496 
168.080463978563 0.12052327096761627 
169.089026426781 0.024827428362596153 
170.096392361716 0.10558462410363387 
180.080855495122 0.19335536586021929 
180.090181532102 0.03573257842710761 
181.075757445153 0.043297741495942406 
181.088619834967 0.06548096517679665 
182.084352723752 0.03153740876335563 
182.09644723949 0.05596901455612312 
193.088147010843 0.02824041394931653 
194.096297699986 0.08160281299653187 
195.091582057704 0.35141296796317234 
195.101047362875 0.06558148896719515 
196.099603911727 0.18811409948771127 
196.111109566959 0.06264948710837462 
197.10729440207 0.21331774422295455 
197.116937716743 0.03703109767805117 
205.088928690742 0.03906636239765588 
206.096312054579 0.07398183429598099 
207.104755630589 0.026270344762977193 
208.099410558018 0.026094654221349906 
208.111877226342 0.06091056466775438 
209.107448121735 0.22637088014781517 
209.117705469904 0.03211693363250079 
210.114384252043 0.025361862456555636 
218.095819607777 0.027430009006560594 
220.112619632488 0.05484506118617608 
223.123059692094 1.0 
223.132743514947 0.1634085518730585 
223.15296228374 0.04381834342358754 
224.130635649229 0.35057329865513776 
224.140603031667 0.07200847228882583 
225.138908198871 0.14607985044100608 
307.180786949445 0.09495317237777837 
END IONS

BEGIN IONS
TITLE=kopsifine.mgf
PEPMASS=439.1493479
CHARGE=1+
RETENTION_TIME=332.55
PRECURSOR_MZ=439.1493479
SMILES=[H][C@]1(N2CCC3)[C@@]34CC[C@]5([C@]6(O)C4)N(C(OC)=O)C7=C8C(OCO8)=CC=C7[C@@]51[C@@H](C6=O)C2=O
INCHI=InChI=1S/C23H22N2O7/c1-30-19(28)25-14-11(3-4-12-15(14)32-10-31-12)23-13-16(26)21(29)9-20(6-7-22(21,23)25)5-2-8-24(17(13)27)18(20)23/h3-4,13,18,29H,2,5-10H2,1H3/t13-,18-,20+,21-,22+,23-/m0/s1
COMPOUND_NAME=kopsifine.mgf
IONMODE=positive
SKELETON=Kopsane
105.069923301203 0.09513101017539063 
107.048657962322 0.11674853424695789 
107.052291246212 0.04909572333755164 
107.085450165985 0.19222272685183142 
110.095501851114 0.05394336439010123 
117.070273221675 0.06269605962664268 
132.043371940886 0.037280181137533126 
135.080079545373 0.20332798327961232 
135.08920823269 0.04038784214989851 
136.074943272469 0.05497077312685653 
146.06124526584 0.04037385705068 
150.092414561507 0.04760745303637595 
158.05974636379 0.07162207308702509 
160.039308501098 0.04739460467659366 
163.075091721073 0.2991038660017314 
163.083486375542 0.04453736733263078 
171.05619057551 0.0511173381425025 
172.039157056087 0.09514673698165843 
172.075567617843 0.042078833923456016 
174.055846806983 0.06984992658374084 
175.061463095363 0.0527255878077567 
176.035335024995 0.04936010270927309 
182.061391092933 0.03789852388490329 
183.055895115213 0.047407274309306593 
186.05571586074 0.06348138578149734 
188.10636318104 0.06647543164204026 
189.065401941009 0.048151916539161954 
190.010747397649 0.049058904973345266 
190.015026302436 0.07123408395762876 
198.054317895861 0.053607332513187736 
198.091520682579 0.0684278631973626 
199.050852355403 0.09789202004212431 
201.065760173075 0.10400614668259925 
202.049666511727 0.09698317231729346 
216.028086892176 0.07052334989792274 
217.060720681725 0.13242007622356758 
220.07602286346 0.06380111028312661 
222.08978981733 0.04302494095098675 
222.093598946304 0.0570166542468991 
224.070864069882 0.0574716219334565 
226.05022104982 0.17772746179635404 
229.060787587272 0.12661556189527123 
229.06871880256 0.056921925960547765 
230.045477801943 0.0594475922553563 
231.079424737486 0.03877026663550701 
232.060241151999 0.0662973659804194 
232.112337362187 0.04429374146600291 
234.089582852744 0.050987298031797544 
236.071638995926 0.055608583308714266 
236.104976052197 0.03762222447590786 
238.086642329355 0.21610233888474897 
238.095547785667 0.04052392311796428 
240.06606563506 0.0482405892702027 
241.058430089104 0.055579135966324064 
242.04422500469 0.07793617268327241 
245.055793253868 0.1853778181481465 
250.084671433109 0.05717864035145738 
250.121189341767 0.0576503416538427 
251.079948020401 0.04255431259893558 
252.066503050691 0.05382377452169197 
256.059669719476 0.04543892487436928 
257.055501162034 0.28333201051785284 
257.067671718722 0.07262704540343667 
259.074838683211 0.04591177996581257 
260.069463549994 0.03680312978142679 
260.110518375527 0.0700478638734683 
262.085988183507 0.0495413137321475 
263.079820097844 0.04880928969218083 
264.104452299485 0.05062783762292998 
265.097887037968 0.1461738297124934 
265.109788774589 0.06452241951770148 
265.132121494247 0.04457258362031081 
266.081776098994 0.059315986812999454 
267.074261044671 0.04026778929607109 
267.088677179305 0.05542485893642696 
268.097442429192 0.2956704984221751 
268.111454245918 0.04590014653855933 
276.101036919902 0.04210364406268969 
277.094821786554 0.04709256180855332 
277.107526286682 0.0390296781002018 
278.081539866293 0.047710346033831744 
278.104578947028 0.038973260019959814 
278.116824218512 0.03938821988720793 
279.074240249332 0.08832093561269139 
279.111705376503 0.0696410834152744 
280.084687048247 0.055603042181646085 
280.097497383582 0.1279632169108731 
281.092129733974 0.12014530393155458 
281.101734651264 0.04685914366804974 
281.107286341485 0.05215433729149121 
282.074998152826 0.049840747714101366 
282.099297138083 0.10165087371962485 
283.069825539389 0.03715000874528012 
290.079796818713 0.03831649683185692 
291.075725565439 0.10214060940639391 
291.110062999676 0.057535102378569215 
292.096680409145 0.08156362668971305 
293.091837945758 0.10353316665858278 
293.127135644395 0.2923555963178696 
293.140458265126 0.058885403025132024 
294.076508448291 0.042316889267116124 
294.09984803522 0.04372703996519525 
294.106908589728 0.04792686888105978 
294.113422888578 0.04457783813735822 
295.070313243208 0.09290030233682703 
295.106496739082 0.10386982319836206 
303.110277625194 0.043386657495145996 
305.093056026481 0.05947757607291359 
306.077066122218 0.04363233372576859 
307.071250234992 0.05569256004479935 
307.110531412915 0.11314922681435167 
308.079196830162 0.03917003617165442 
308.093624422742 0.04629854181640203 
309.086347790814 0.8249165523901071 
309.09678956776 0.21228263569514688 
309.122462129096 0.13945392707171275 
309.13302843238 0.1111959427779419 
309.145121073162 0.05018704610893826 
316.099477115307 0.04330315109345397 
318.112680050152 0.054249412449457426 
319.108258773038 0.2706581888892318 
319.121805796459 0.04374275207351326 
320.091471670783 0.12007482726234517 
320.116279719244 0.062053479960080364 
321.086569385737 0.10193549951717235 
321.122563122072 0.5215198561952593 
321.130667598913 0.16375338604018125 
321.157465011975 0.05105656946912475 
322.093685847935 0.04553552714931794 
323.101912416177 0.27081766164437726 
323.113895012944 0.08488639219715241 
323.119700052979 0.037200562343558695 
323.138432647942 0.12353244645904343 
323.152598808783 0.040052177721729594 
331.108525623339 0.04399614472777192 
333.086055433451 0.12157445907870311 
333.09532458192 0.03934344258319407 
333.121945245923 0.0525315675216464 
333.131387201797 0.039613598249180225 
335.103208584339 0.2428302666061111 
335.118368410223 0.037847375019658513 
335.138088225468 0.09405717796424576 
337.118295828616 0.21576164040877938 
337.133349515181 0.04141535377230231 
349.115762976059 0.05472788215771782 
351.13333963192 1.0 
351.160488449509 0.04321952710816368 
351.16808685082 0.045849129954862594 
351.17883084186 0.041849759027113305 
361.11851440941 0.15006525889703645 
361.133532741034 0.03683903687274662 
365.112526898479 0.06733709159909283 
377.112186118689 0.06351641099583019 
379.128146027568 0.607253364728154 
379.142577102091 0.17912398749498432 
379.159218231902 0.04211344024622006 
407.121810135084 0.07907041346802535 
END IONS

BEGIN IONS
TITLE=kopsinarine.mgf
PEPMASS=455.1845131
CHARGE=1+
RETENTION_TIME=334.28
PRECURSOR_MZ=455.1845131
SMILES=COC(N1C2=C([C@]34[C@@]5([H])N6CCC[C@]57CC[C@]13[C@@](C7)(C([C@H]4C6=O)=O)O)C=CC(OC)=C2OC)=O
INCHI=InChI=1S/C24H26N2O7/c1-31-13-6-5-12-15(16(13)32-2)26(20(29)33-3)23-9-8-21-7-4-10-25-18(28)14(24(12,23)19(21)25)17(27)22(23,30)11-21/h5-6,14,19,30H,4,7-11H2,1-3H3/t14-,19-,21+,22+,23+,24-/m0/s1
COMPOUND_NAME=kopsinarine.mgf
IONMODE=positive
SKELETON=Kopsane
107.049210257771 0.09813248599259648 
107.085272157837 0.26605841171141953 
135.080389961775 0.1427933446660031 
136.075367134803 0.07842753615084379 
163.075819156533 0.1736181878166344 
187.062506626106 0.10403566995090419 
188.107270875999 0.06477943232271267 
190.086171707959 0.06314601809499311 
192.065270737292 0.0914662480288983 
200.071279004787 0.06748017714752229 
212.058797876069 0.1412031548810629 
217.061449860908 0.06863476743795922 
228.052397031468 0.14811520739904044 
229.06061159122 0.06506259995302907 
232.060021899661 0.1012652236151962 
233.092883383236 0.12561738819240187 
242.080228933222 0.06844772246888176 
245.092231807078 0.19137015332654864 
246.064136856107 0.06392036749164029 
246.076330773462 0.0727844816981111 
250.085458846711 0.10627948264871333 
252.102609069524 0.06689991836004339 
253.109534124625 0.16697115760985048 
258.07528944112 0.08603084424661976 
261.087113816797 0.23616527058613013 
261.098864893889 0.06872057326906517 
264.103132895456 0.07284641063779818 
268.096620195258 0.12148506436136303 
273.08663595301 0.185631647225919 
277.09839948707 0.07740681302213225 
281.092371379161 0.06436060816175894 
282.111143277515 0.09983987944126956 
283.105752338598 0.08723536911325587 
283.119716621211 0.0700944171689947 
284.093466963648 0.06648914635919344 
284.127866684272 0.4684112081595222 
291.11178341703 0.06879200823109699 
292.132350030196 0.10851943701980607 
293.091664700804 0.15169967679524027 
293.128530212012 0.06999776328886005 
294.100258092982 0.11784962591006184 
295.10783977516 0.12647723587237325 
295.143613557966 0.07700115749801491 
296.127628733827 0.13023365243745597 
296.150092304667 0.0883738830423745 
297.086634320243 0.07530357761946832 
297.122422714398 0.11846519677466252 
297.13527973857 0.08142028361497254 
305.090708225997 0.06515382980864935 
305.128489840218 0.07938767236655223 
306.101105157751 0.09238959034635472 
306.135941463094 0.08641407674155921 
307.107500031896 0.39863253072681926 
307.117304952135 0.11383568001610431 
307.142608258162 0.07164406656452352 
308.114954672532 0.27161803683863245 
308.127167983423 0.08622669626581074 
308.152670320957 0.07293792008231097 
309.085951604618 0.12798905689074783 
309.091196856112 0.07353419931332968 
309.123943844587 0.20737849066732275 
309.160882789003 0.06501003724124048 
310.107175854884 0.08446106445083149 
311.102208254132 0.2961595669727233 
311.115516793557 0.07949682387018128 
319.108457181645 0.08608855139403021 
320.11618076717 0.07914015232002863 
321.123699960631 0.08838355681805472 
323.101967611012 0.21321116230694387 
323.139049637881 0.30885458022523676 
324.109799139105 0.09686139101065792 
324.121001309422 0.06540901059082724 
325.117398359056 0.5337357549459275 
325.127652413078 0.12249784716552779 
325.153924995744 0.08382824295156402 
325.165749027729 0.08420733753089457 
333.123874784455 0.0869646991064339 
334.13158667198 0.0953119652862431 
335.103406313716 0.07058462037420177 
335.138416809138 0.24222865897983606 
336.121687608489 0.0951687318966192 
336.146234087875 0.3513769752955254 
336.159422813281 0.0843885670510082 
337.118432955536 0.25685451312390256 
337.130434389186 0.06476240535915989 
339.134043136102 0.1861128476687878 
349.119110434784 0.1214195846427413 
350.12503518824 0.06667974210720555 
351.133972305032 1.0 
351.146280755557 0.41116118858829975 
351.168012034625 0.10693774673719761 
361.118900713012 0.07606419920149411 
362.123518560397 0.0662525023205878 
363.133338580148 0.07564923336725679 
367.165580299575 0.6073126474831407 
377.113554111169 0.06798701589183265 
377.14883549031 0.08454474540635448 
379.128238204303 0.3967028081908362 
393.14399147028 0.1079810886073118 
395.159982159436 0.4030620575505776 
395.172108241211 0.11973562074325911 
END IONS

BEGIN IONS
TITLE=kopsinitarineB.mgf
PEPMASS=365.1506856
CHARGE=1+
RETENTION_TIME=307.554
PRECURSOR_MZ=365.1506856
SMILES=COC1=CC=CC2=C1N[C@@]3([C@]4(O)[C@@H]5O6)CC[C@@]75C=CCN8C6C(C4=O)C23[C@]78[H]
INCHI=InChI=1S/C21H20N2O4/c1-26-11-5-2-4-10-13(11)22-19-8-7-18-6-3-9-23-15-12(20(10,19)16(18)23)14(24)21(19,25)17(18)27-15/h2-6,12,15-17,22,25H,7-9H2,1H3/t12?,15?,16-,17+,18-,19-,20?,21+/m0/s1
COMPOUND_NAME=kopsinitarineB.mgf
IONMODE=positive
SKELETON=Kopsane
106.065430092493 0.027872246011195288 
118.065409916333 0.02951829762121081 
120.045196299476 0.02553156342770301 
122.060518569596 0.05158711535010673 
145.053179789433 0.053300555012342786 
146.060635370821 0.04109822611927414 
147.04464051201 0.0262654324409885 
148.039922989457 0.11827368012308163 
154.065569287248 0.04530610988778238 
159.068470092218 0.06342659420376763 
160.076454648845 0.2183379227961018 
160.084805157619 0.03765118468784148 
167.073654777346 0.048454747610473525 
168.081571680737 0.027796123308821252 
174.055711476702 0.03417001928637908 
174.092086547518 0.09436529076315273 
175.039379205941 0.034619989541048446 
180.081793129421 0.08218509266762326 
182.060671550268 0.11690634531602123 
183.068643796931 0.03557460081404224 
186.09208692152 0.034185859325517556 
191.074591168918 0.027693615626967982 
192.081723183678 0.05842582596186941 
193.089437103708 0.02795384484138577 
194.097347360364 0.1036199015156881 
195.068827952341 0.10184371266983634 
195.1048713342 0.04952879277857141 
196.076662411622 0.05502849962470422 
197.084485561949 0.14148940720011244 
197.093344786863 0.02499587593266716 
198.092270984962 0.06102092220255292 
204.081508217862 0.07914785567733026 
205.089610948699 0.09025817227219253 
206.09730948173 0.10988015652674105 
207.092462543722 0.0320356645269791 
207.105097534205 0.07382754858875434 
208.076580116392 0.13662413917873018 
208.100403005841 0.08776338873651024 
208.110355401337 0.02483552947933113 
210.092351133874 0.2052672655860894 
210.10122507574 0.0671126844544272 
220.076690706372 0.040148615772922634 
221.084397961602 0.08060212967063354 
222.092312884492 0.13830499361759568 
222.101854730415 0.02673309828223827 
223.10026741206 0.31542088907424254 
223.109483185273 0.05380684792046309 
233.084038680402 0.025609745335165045 
234.092417969234 0.026186684817842948 
235.087707121292 0.05726425326321778 
235.099420660007 0.030250130058035642 
236.095574983278 0.511676484850926 
236.106698699508 0.205670756640201 
236.130881542131 0.04138373151043146 
237.115387064783 0.030723950885922075 
238.123515763381 0.16319021556256694 
238.13413681425 0.03176038727537976 
251.119205123833 1.0 
251.128587942033 0.139184251561545 
251.154873893012 0.061213061877302605 
END IONS

BEGIN IONS
TITLE=mersingineA.mgf
PEPMASS=364.168009
CHARGE=1+
RETENTION_TIME=215.976
PRECURSOR_MZ=364.168009
SMILES=COC1=CC=CC2=C1N[C@@]3([C@]4(N)[C@@H]5O6)CC[C@@]75C=CCN8[C@H]6[C@H](C4=O)C23[C@]78[H]
INCHI=InChI=1S/C21H21N3O3/c1-26-11-5-2-4-10-13(11)23-19-8-7-18-6-3-9-24-15-12(20(10,19)16(18)24)14(25)21(19,22)17(18)27-15/h2-6,12,15-17,23H,7-9,22H2,1H3/t12-,15+,16-,17+,18-,19-,20?,21+/m0/s1
COMPOUND_NAME=mersingineA.mgf
IONMODE=positive
SKELETON=Kopsane
103.053742372898 0.08391845950111804 
104.049066979269 0.04901126717756117 
106.064933750787 0.08472956602913402 
107.072786743343 0.07675014653843648 
108.044324264675 0.024639940950437447 
108.080536914824 0.05178307969520005 
111.055374278945 0.04396595966393852 
112.038997105662 0.02686323947636932 
117.057206416286 0.07782467490176496 
118.064897827584 0.13390187352104727 
120.044158417966 0.06798866769424483 
120.080624954947 0.4465076091439984 
120.087371513144 0.07355995050257257 
121.064603921088 0.03501685083472635 
122.05983002678 0.09673950893341728 
130.064793667181 0.07649419273603543 
131.072658336262 0.028089273386448996 
132.080412708836 0.02569284241147993 
135.054970314845 0.1233718168595185 
136.075666369475 0.05879664806894905 
144.080370658478 0.028440700779367386 
145.051739147928 0.13029503071879817 
145.059310898477 0.02837609795280377 
146.059845128702 0.13764370536005036 
146.068201546078 0.02569947680350824 
147.067983464492 0.03328732822438834 
148.039153052362 0.9967162364587631 
148.046969243511 0.15480072943577275 
148.063867690369 0.054642120573996485 
154.065007036425 0.26117699672188094 
154.073536660135 0.031370605475110176 
155.072602858727 0.03577239867138484 
156.080021431456 0.04044268936022404 
158.059893455413 0.0385013568373749 
159.067660123756 0.07420298287128499 
160.07559791186 0.48375572585372206 
160.083490810226 0.08346373445064369 
160.100789564719 0.024999717777826024 
166.065139636091 0.06524677072704774 
167.072792986853 0.22010841673360396 
167.081402036038 0.03910609816989775 
168.080617161682 0.17711542886915743 
168.08917446296 0.03344083971951458 
170.059471569668 0.02670298938410438 
171.067554559059 0.04637131754336452 
173.07073778804 0.027358200725093894 
173.083507951392 0.03037188632959208 
174.05479913751 0.29551149512624014 
174.063602778465 0.05688609078870242 
174.090778450398 0.10031404815144476 
174.099984174685 0.02699354362503528 
180.080363956639 0.2707731150815188 
180.089408010532 0.04174027310422682 
182.059832378365 0.3569229099277077 
182.083121754777 0.02856822178320995 
182.092426818341 0.027848841803616787 
183.067770789877 0.09902585589301609 
183.091481311865 0.04482921216594664 
184.062803624397 0.8695851334042507 
184.072946955454 0.21706371708312527 
185.107031363275 0.05988841369428826 
186.077881826706 0.04363319801141914 
186.090492453355 0.049188632959208035 
187.085891314185 0.059799274906106856 
191.072541821598 0.09065874997286325 
191.081396162816 0.029350750059700843 
192.080454892826 0.2185889325489004 
192.089526722415 0.041882395849163104 
193.088146470579 0.12817793022599483 
193.097816579236 0.025197225538935806 
194.096047623206 0.2906592709984152 
194.104389552284 0.04518168595184856 
195.067483153817 0.3386013069057595 
195.076501741718 0.07270716193039967 
195.103433979521 0.17438842454898723 
195.112315309856 0.03409566029134012 
196.075387046403 0.14924286303540804 
197.083209616849 0.8688409352408658 
197.092579469502 0.08700909623776133 
197.106442350576 0.030531967088552634 
198.090822881352 0.1123366259253631 
199.061951883862 0.04199931832490285 
199.096334123777 0.09176015457091376 
201.102269797487 0.02842408006425982 
204.080480356405 0.335811084818618 
204.089435359674 0.0714417211210733 
205.088306903499 0.3354549638538523 
205.097188976992 0.06921151466469835 
206.096008323973 0.3997012352647461 
206.105818632033 0.07207077263747476 
207.067694583661 0.029047999478974445 
207.103710499685 0.2199958752143803 
207.112415123441 0.04649158760827562 
208.075442278444 0.45778129952456414 
208.085516323886 0.06988033779823286 
208.098986167353 0.10225512884527711 
208.108964936174 0.039859813733365175 
210.09101645271 0.625148166641339 
210.100190100406 0.09391602804854221 
210.124180870243 0.02676524759568417 
211.097299683466 0.031133764626706903 
212.070309774685 0.05176718841586523 
212.106917316262 0.036174200551418706 
213.101612046363 0.050651499033931784 
217.088248684921 0.02804905021383757 
218.096416055264 0.029288452771204652 
219.091914558848 0.04039733842780539 
220.075178576997 0.14888144497753075 
220.083941784655 0.028881666413390357 
221.083022446238 0.4645251069187852 
221.092675308578 0.07982875626858867 
221.106462341459 0.04553689512189827 
222.091127744304 0.429337733104661 
222.100870492101 0.08494826650456982 
222.115087060625 0.03337649306384734 
222.125464647108 0.025280511473416842 
223.098995137707 1.0 
223.108457795597 0.15834752404315827 
223.132877260139 0.04940299155504418 
224.106834815434 0.04562551288452771 
226.073543647636 0.027391090463061457 
226.085899617331 0.027455723682782276 
227.080806959428 0.028324642337667977 
230.095713588527 0.036298656188263896 
232.075098405256 0.02667284371404381 
233.083170780861 0.0729242124915876 
233.106675421103 0.036866665219373464 
234.078745690541 0.03742471397868137 
234.090813250127 0.06559603152204589 
235.086189339727 0.14388819660030827 
235.097294302571 0.05711108698955778 
236.094050941201 0.2603090984087011 
236.106022367743 0.22688721967739833 
236.117304407109 0.056271324056183916 
236.129937743932 0.02698619716475262 
237.101779783901 0.11908850921563945 
237.112968334605 0.0635701539196318 
238.109315414724 0.10792675249115342 
238.122132244884 0.47245207650391857 
238.131829331959 0.094743242949873 
241.096793930271 0.0765729110131776 
243.091104986727 0.027064212057399648 
246.091168124525 0.0396797950632829 
247.086240708004 0.06553290059266656 
247.098082597214 0.058814840544471704 
247.123613630202 0.02496781798840718 
248.094382466468 0.06184308447126761 
248.105869499262 0.057232095174000824 
249.101657677601 0.12991841608232205 
249.112390224592 0.035834769771834224 
250.109851843316 0.06826129431430866 
251.11751638018 0.2100985606669127 
251.127359566323 0.044623146560145883 
253.133611566038 0.0428891344463018 
257.107645962087 0.026600047760675597 
258.091348769625 0.04759164622365022 
259.085953920356 0.034233988233506284 
259.097425416294 0.04443366693441591 
260.094316998373 0.034755495734103296 
260.106077725721 0.026233762455767102 
261.101874315629 0.0917513405553264 
261.112978464895 0.03007307817554219 
262.109807512763 0.05782958122571261 
262.120931009808 0.02514946486333934 
263.11760328627 0.09557562468792741 
263.12837867656 0.02538986605301435 
264.112436691584 0.039817749603803486 
264.125137279886 0.038558109545622304 
265.133562286123 0.08188311660117664 
272.094349321183 0.026150776110978442 
273.102268237784 0.05476395371556347 
274.08586722613 0.029429242559103837 
274.110041882147 0.03906737728762781 
275.08103287078 0.04410255519614441 
275.093645506562 0.03243270737902438 
275.117596915639 0.1810753967392484 
275.128195364027 0.03273610924169073 
277.096969204 0.027863143955018127 
277.133136601653 0.046054534007771965 
279.113097002191 0.03418746065171613 
285.102282157511 0.052864381390704034 
286.109921222505 0.0408026876234722 
287.117192796773 0.03835076308533964 
289.096579205073 0.0424500488461455 
291.111963070624 0.0631688774070295 
292.107284540653 0.05228734559190673 
292.119311224092 0.02511592384343182 
302.128103203425 0.041004007554870506 
303.112391965413 0.06992544992727351 
304.11917524995 0.027774934329071056 
320.102301665048 0.14898043983240344 
320.113870165491 0.039790187352104725 
320.139009316356 0.1399484618891518 
336.169560522856 0.0295526995636411 
END IONS

BEGIN IONS
TITLE=Vindolinine.mgf
PEPMASS=337.1915618
CHARGE=1+
RETENTION_TIME=722.652
PRECURSOR_MZ=337.1915618
SMILES=[H][C@]12[C@@]34[C@@H](C)[C@]5(C(C(OC)=O)C4)NC6=CC=CC=C6[C@@]51CCN2CC=C3
INCHI=InChI=1S/C21H24N2O2/c1-13-19-8-5-10-23-11-9-20(18(19)23)14-6-3-4-7-16(14)22-21(13,20)15(12-19)17(24)25-2/h3-8,13,15,18,22H,9-12H2,1-2H3/t13-,15+,18+,19+,20-,21-/m1/s1
COMPOUND_NAME=Vindolinine.mgf
IONMODE=positive
SKELETON=Vindolinine
102.045795200539 0.026164072871838657 
103.054612498142 0.11880408554587187 
104.058190105314 0.034226794890130294 
105.070044892477 0.21100141716108398 
106.070248519066 0.04320577920505112 
115.054396487574 0.8735760372169711 
115.150446603727 0.026502385771182656 
116.058470242091 0.2066933052501412 
117.069436905428 1.0 
118.072471320716 0.20400195118474765 
119.084835101827 0.15076061053013767 
120.083775529464 0.05824637993111143 
121.068371483819 0.027373744815660715 
127.054100785863 0.11934465810206353 
128.058384457103 0.10792266720983952 
129.067164417626 0.056874916634042594 
130.065575771863 0.1877307942891731 
131.07234446881 0.042929131833540635 
132.080918094744 0.07359284283091289 
140.049727650687 0.028099053925796234 
142.065865528129 0.09272273578059669 
143.073139759913 0.16926026888019235 
144.080764606826 0.8341459256979987 
144.188094478615 0.02585502774370909 
145.077168106727 0.21571763101516983 
149.095635479285 0.035626707346846205 
154.066736962129 0.049926204574882976 
156.080405796825 0.05781896838570281 
157.085769062901 0.04099819568379828 
158.086004170189 0.03938712959632338 
159.091474706001 0.09335215176865845 
167.072822026693 0.09306530064472884 
168.078986087426 0.07258956212467263 
169.078457797888 0.08001287627841847 
170.083598964933 0.028302599284340875 
177.090609815569 0.10044325408691825 
178.070601725285 0.02482558999021037 
180.080148232704 0.09293162619114002 
181.084618046369 0.04308836141411777 
182.088148203263 0.03693327400807151 
183.091625065174 0.04376456827629778 
191.075018255178 0.04549889800436946 
192.079414918219 0.03945834398732211 
193.087331647092 0.033530662059328156 
194.095789981845 0.058269975205700236 
202.074651611949 0.03257464894806006 
203.079186524037 0.0347954747152556 
204.081509298834 0.1699582556254265 
205.086737979944 0.09738039483080503 
206.094214107198 0.08370606644140403 
207.094357101067 0.041187723523092315 
208.099679851817 0.032725201246023114 
216.081041492432 0.04677923538790391 
217.088392271786 0.17525168694174906 
218.09522446778 0.17920399174261697 
219.099445787937 0.11784269849043214 
220.096796073669 0.028679882909653696 
220.110110917014 0.10711619035511852 
221.105232061981 0.051161489430039286 
223.121006836196 0.02495593221318379 
228.081733755737 0.045125115147347676 
229.088200102819 0.03954708629658682 
230.095963313394 0.21049007385320948 
231.102175879059 0.14770213325359094 
232.105555277779 0.10054317285175861 
233.107930137006 0.05280819882822978 
234.096033178376 0.05441917823918578 
242.096422334415 0.036754580733639686 
243.10210315703 0.04592316993364913 
244.110318417698 0.1618015136609417 
245.11523327866 0.13038344247351671 
246.109271520035 0.05743706201271545 
246.123170344077 0.043704568863771956 
247.118946276526 0.05341238231856799 
248.139473946491 0.02599719649614988 
249.140158232584 0.055980800187991744 
258.109892987039 0.035648896535684 
260.143035632027 0.493001111867123 
261.146408730317 0.19600613862368282 
262.137601499825 0.0417881462155828 
272.108662892356 0.03492102083751668 
273.113092919651 0.028922398994167153 
276.138103636122 0.13528499961717871 
277.150516670953 0.045029034226149636 
288.138232834662 0.0723881355254788 
289.14321165482 0.03020568819470628 
305.163649696893 0.06969601100213947 
306.16870464067 0.02974539735646248 
320.165178394805 0.8002563698814507 
321.168309969823 0.3173223986089382 
322.170751468234 0.04563155641654231 
337.191561789401 0.11538739347816981 
338.193838491268 0.041842892067990994 
339.20637947645 0.045619383180999354 
END IONS

BEGIN IONS
TITLE=Aspidofractinine.mgf
PEPMASS=281.2012319
CHARGE=1+
RETENTION_TIME=555.335
PRECURSOR_MZ=281.2012319
SMILES=[H][C@]12C3(CC4)CCC54NC6=CC=CC=C6[C@@]51CCN2CCC3
INCHI=InChI=1S/C19H24N2/c1-2-5-15-14(4-1)19-11-13-21-12-3-6-17(16(19)21)7-9-18(19,20-15)10-8-17/h1-2,4-5,16,20H,3,6-13H2/t16-,17?,18?,19+/m0/s1
COMPOUND_NAME=Aspidofractinine.mgf
IONMODE=positive
SKELETON=Aspidofractane
103.05387469912 0.03546744226923845 
106.065299865537 0.02464394042963615 
108.080421364012 0.0509674249924508 
110.095978701289 0.27789437522879223 
115.053825268592 0.040574956470006744 
117.062204865864 0.04703438180899484 
120.080245242432 0.028262450930167222 
122.095953898255 0.040956282716351704 
124.111488650276 0.038752595899942864 
127.053688358966 0.03813276985966742 
128.059803218449 0.09438889998943362 
129.068734631347 0.07971469763868878 
130.065091613334 0.1828662841736112 
131.07086310093 0.029782107157147155 
132.080327851296 0.02524062558997726 
143.074697918034 0.07905412341836017 
144.080441487647 0.29654474262343766 
145.084380304293 0.038014226057502154 
154.065266437836 0.06079230847428939 
155.072172454176 0.05294003352197583 
156.080150802104 0.07652014448402247 
158.095693255693 0.03117337932464286 
167.072815554248 0.09128944428336136 
168.080192584439 0.1044285664923464 
169.086086557423 0.030308433225716472 
170.096087291104 0.15949825203978768 
180.08057213808 0.12697181980661015 
181.086372731152 0.03815781869789108 
182.095628329381 0.03844831911879369 
194.095848302382 0.05093006706899047 
208.111725978172 0.05033324169124228 
210.126655556428 0.024556539915138426 
236.143332187916 0.042287942454776135 
253.169948567745 0.13769043902570938 
254.172599321447 0.031296830736056255 
281.201231942501 1.0 
282.204571550483 0.2496802792730128 
END IONS

BEGIN IONS
TITLE=aspidoreticulofractine.mgf
PEPMASS=371.1967617
CHARGE=1+
RETENTION_TIME=161.025
PRECURSOR_MZ=371.1967617
SMILES=O=C(OC)C(C1)[C@@]23NC4=CC=CC=C4[C@]25[C@@H]([N@@+]6([O-])CC5)[C@]1([C@@H](O)CC6)CC3
INCHI=InChI=1S/C21H26N2O4/c1-27-17(25)14-12-19-7-8-21(14)20(13-4-2-3-5-15(13)22-21)9-11-23(26,18(19)20)10-6-16(19)24/h2-5,14,16,18,22,24H,6-12H2,1H3/t14?,16-,18-,19+,20+,21+/m0/s1
COMPOUND_NAME=aspidoreticulofractine.mgf
IONMODE=positive
SKELETON=Aspidofractane
100.075661804204 0.0035056688076787693 
105.069856077748 0.0022661768459624767 
106.065083408248 0.009175267552094612 
107.072901462422 0.0043189616872693504 
107.085573483785 0.002872655547096685 
108.08078780269 0.059349703852705514 
108.087868443099 0.006515778522456069 
109.064651991444 0.008538701565833704 
109.088618182062 0.031403862454297916 
109.095974217713 0.004714753485935329 
110.060364924038 0.002542234198593942 
110.09654058282 0.3549235464447813 
110.103564840147 0.02268282137320959 
110.121177269534 0.014255367599945525 
111.067716447799 0.002720619129798022 
111.08035548045 0.004950387607283163 
112.07584708962 0.016224570365028796 
112.083272801026 0.0022867445527725624 
112.111941930659 0.0032005816527839485 
120.080874306809 0.003630875225208129 
122.096485767822 0.05502253011519196 
122.103902692279 0.006655005332065246 
123.080177593293 0.002054307438026369 
124.075602320988 0.02335478810528987 
124.083279084627 0.0029472278097900143 
124.111944913302 0.002462794984509848 
125.083582684687 0.19671421246549783 
125.090967970423 0.0167323333013335 
125.109747973231 0.0067720406293697456 
129.069827919188 0.004719609274593546 
130.065107161158 0.010213342144450225 
130.072627014192 0.0015353586995267745 
132.080701671515 0.0024496847272237466 
134.096247899239 0.004653998453589451 
136.111930533755 0.005387001518875808 
138.091534279938 0.008485157658713592 
139.099428076347 0.002145581381157456 
140.107398981262 1.0 
140.11505786381 0.0021494563377158224 
140.134865285108 0.04737841737754669 
142.065179093806 0.0076697721388614155 
143.07311564784 0.0022106459724488877 
144.080687015684 0.006145826961273504 
148.075856723655 0.00156410868929427 
150.09164694362 0.0030330989903680503 
152.10705879918 0.056484193198621475 
152.115107751828 0.00628365470840338 
154.065209016575 0.006974932223608881 
155.07315195863 0.01094512623934238 
155.081746673877 0.001521952257737076 
156.080800831423 0.05854282433505463 
156.089268621604 0.0062633630931783054 
158.096484167623 0.001775005451134394 
167.073125892427 0.004958058637089891 
168.080762517128 0.015395298405887374 
168.089627383355 0.0017031896391981585 
168.101661342689 0.004876753014123833 
169.053452908151 0.0034854017504653 
169.07608469083 0.008866417067966901 
170.060311092371 0.005211184760339853 
170.096471696438 0.00521528818082436 
171.091616029422 0.006092820353680018 
180.081219463636 0.01476477517884558 
180.090333582941 0.0017820067169882648 
181.052168997266 0.0016130394111435326 
182.096593010439 0.004457875940367194 
183.067951201682 0.02103745692115464 
183.077485894496 0.002803607348650091 
183.092117643746 0.0027469750855251356 
184.09942342301 0.0026879145559799873 
192.080261796063 0.0016841437849253993 
193.088449883712 0.002153623757866936 
194.060116125112 0.001815022358953293 
194.096414511134 0.009679242601154821 
194.105861009769 0.0015442784670144977 
195.067941233358 0.0025495108118506545 
195.092175114476 0.00297000424928019 
195.103994796131 0.0034330820230145777 
196.076177698661 0.00309220044993254 
196.112106096643 0.0067866585997319465 
197.107127950036 0.003966835521601004 
200.070492082743 0.001746838900188055 
202.086493007303 0.010189543198658686 
202.096016360197 0.001724378738120062 
204.081229361121 0.002041930944359732 
206.096956290386 0.003812093257932796 
207.091857296687 0.00300127031896392 
208.099379130478 0.0022724614643867902 
208.112155221444 0.0035759367207017336 
209.106697131706 0.0032883051027827203 
210.091602870796 0.0017775810656242164 
210.127117584506 0.001500742321714417 
214.086426775181 0.0032966191059841917 
215.094204240485 0.006190943749502328 
216.102059554417 0.008408983171808593 
216.112158627345 0.0015236608999990326 
217.087875199694 0.0015596793170193717 
218.096928784644 0.0016120697417762288 
220.11197597491 0.0026773412157108764 
221.083731718659 0.006953464800555457 
221.107383595388 0.010969847971024523 
221.118191816267 0.0017151508792140246 
222.091289569862 0.013194952658851266 
222.115200138145 0.002026394653199946 
222.12732290395 0.002276151863767035 
223.123193841085 0.014944681218404816 
223.133274588051 0.002678541581550831 
225.10253439448 0.017131095875221488 
225.112930527981 0.002906366255208345 
228.101282540418 0.001977229513967183 
232.112073620868 0.0016878438586738526 
233.106657392283 0.0016740586281597043 
235.122512843833 0.002698979056481194 
237.13888409341 0.0022836264294809256 
238.086369155933 0.0026122513222256705 
239.118291503989 0.009008020051244384 
247.123280920933 0.0027506610198123616 
249.138535672283 0.01127828915495882 
249.14951696955 0.0020222369074170406 
250.122721189512 0.0016073047433427326 
251.154519081468 0.006100520406591371 
253.10951401979 0.001585754716068456 
253.133790287562 0.005124727164211982 
257.130792086665 0.002393543624330887 
261.138079025636 0.002933881646756073 
265.132457168996 0.002293577633456049 
267.149481140717 0.005572762039565189 
275.15522918512 0.0016672136405615002 
277.133820813586 0.002301255360902306 
279.14998018499 0.0023976797888308676 
281.128744101055 0.004413437846277265 
281.164881965562 0.004496796667849916 
295.182552703034 0.005987418856236656 
297.15989208152 0.0027029180127061663 
307.144186100807 0.006012165145930403 
309.159349610369 0.0043065978446996 
310.143091466514 0.002601604307921745 
321.159676976775 0.00881358013390814 
321.171788406685 0.0014982723810927124 
325.153993140121 0.0024872942057232073 
326.161212709201 0.0018123686053356373 
335.175215628867 0.0021753248541216902 
337.191179494088 0.0018569280011192502 
339.170609826002 0.002478603646343796 
353.185997064878 0.00988034294891115 
353.197918913554 0.0016010640316664396 
371.196215484771 0.0015151281072396273 
END IONS

BEGIN IONS
TITLE=kopsidineA.mgf
PEPMASS=487.2063713
CHARGE=1+
RETENTION_TIME=247.041
PRECURSOR_MZ=487.2063713
SMILES=[H][C@]12[C@@]34CC[C@]5(C(O)(C(OC)=O)[C@@]46[H])N(C(OC)=O)C7=C(OC)C=CC=C7[C@@]51CCN2C(O6)([H])C[C@@H]3OC
INCHI=InChI=1S/C25H30N2O8/c1-31-14-7-5-6-13-17(14)27(21(29)34-4)24-9-8-22-15(32-2)12-16(26-11-10-23(13,24)18(22)26)35-19(22)25(24,30)20(28)33-3/h5-7,15-16,18-19,30H,8-12H2,1-4H3/t15-,16?,18-,19+,22+,23+,24-,25+/m0/s1
COMPOUND_NAME=kopsidineA.mgf
IONMODE=positive
SKELETON=Aspidofractane
103.054252889451 0.0818377786970665 
109.06489259589 0.07713190964145479 
119.049221245683 0.20913197293674313 
120.05704165253 0.04342027393296577 
121.064844538414 0.07978931711165516 
123.044136289949 0.06240400026222334 
125.059471665763 0.037151160451295406 
129.03355669718 0.06762902631501613 
130.06502121864 0.05711274021127063 
131.049290870505 0.06823607334115482 
135.044286053094 0.036719201755992144 
137.060076483161 0.05200716140976691 
142.065295985605 0.04213622502379225 
144.080571331886 0.07248476957124224 
147.044182867906 0.2966960311593662 
147.052456129608 0.040068833626074045 
149.059763175016 0.13858937407741465 
153.054859379809 0.04733425111501432 
158.059984872666 0.046405664024088376 
158.096664122076 0.04913934231674318 
159.044169687755 0.0666355163426174 
159.067848466062 0.08027650998822256 
160.075814852507 0.19810625018366937 
172.075301474738 0.13545702589003347 
173.083527157498 0.2916732787637526 
173.09177042303 0.05214161868657755 
174.091362903258 0.3095431210454573 
174.100057410203 0.045125878504694024 
181.049064982957 0.03744447533857328 
184.075433483616 0.05514036860463276 
185.083075522598 0.04161980328728601 
186.091380380202 0.09128966410546804 
187.098938317158 0.04721887284654735 
188.070761027957 0.07006594012717832 
188.106799474368 0.10647745896543852 
189.102126115282 0.2260677576061722 
189.111338986844 0.038848740084680054 
194.096488347289 0.0400402467612027 
197.070942536866 0.04763684780421863 
198.078673037219 0.07034353517748677 
198.091178142039 0.07133998385970147 
199.086528881217 0.08038813575030912 
199.098634156653 0.04594252335709167 
200.057845581055 0.19215870841443042 
200.069879568768 0.09987440406355752 
200.093683740568 0.04278951377915822 
200.106810259076 0.0888520269185819 
201.102362566917 0.062190333453142274 
201.114297798954 0.07201046180694486 
206.096591995712 0.05467089840880166 
210.091426994534 0.04489695301003004 
211.086610930742 0.09874128276944012 
211.098017962525 0.03668922691586926 
212.071023520342 0.0374408358594935 
212.094375361465 0.06497948554493853 
212.106548209518 0.041543039665800884 
213.102277191095 0.14360416935106504 
214.086081210962 0.03815691354089667 
214.109829977114 0.1560647962908961 
214.120812298457 0.041111894767062035 
215.081700850889 0.6755551335869666 
215.091708840918 0.10433513950959714 
215.117008088212 0.0584211442431805 
217.097173423476 0.052668687594801644 
218.081343134236 0.16446118755524208 
218.093052046322 0.036998094359711645 
219.089059143084 0.22830696406410006 
222.091523375565 0.052876612617011515 
223.099193338605 0.05090523565061905 
224.107056610728 0.12461169470873995 
225.102325944253 0.053290382959099936 
226.073705169805 0.04118302058679253 
226.08653838049 0.04303626141858304 
227.081508258485 0.05370492188683255 
229.133245403993 0.0632252114175658 
231.088749864958 0.04801146548937431 
232.096898522656 0.1745048386987393 
232.108283191757 0.03882846298694986 
234.091442174245 0.052394980683634323 
235.098928017565 0.0381948093342466 
236.10692335625 0.07034706162926593 
238.122833660741 0.04681342131378413 
239.081816058643 0.04550678050776385 
241.097084605062 0.12492649834641059 
242.105020605928 0.050512940495647314 
243.113162830665 0.04071441844063015 
244.09710508611 0.058481139134346515 
246.091284049992 0.038926543557330835 
246.100223813385 0.04399650067477299 
246.113229784811 0.04940803081576324 
247.108383051703 0.05467496739162377 
248.115335396393 0.2385490459365555 
248.126280937099 0.050011189702760805 
249.102351658425 0.07649995139826074 
250.086347573665 0.10409294460984106 
250.122945942093 0.05143727776007017 
251.117933063792 0.081061281141847 
252.10174924718 0.04234946232913098 
253.133848953561 0.050870378031109637 
257.092203797629 0.0686890867620165 
258.091927089804 0.053362087478609585 
259.107672437846 0.22737905513697776 
259.118523251376 0.046590395844212214 
260.115102336237 0.06238903544762202 
262.086397316134 0.03961435085030439 
262.110065265782 0.04000284828797548 
262.122603984848 0.04980208919662455 
263.118288712741 0.06285208569277823 
264.101973784718 0.06872236199931732 
264.125810183407 0.042385662712971686 
264.137971151602 0.061730583605163994 
266.118162476266 0.04909982797244847 
268.096820713306 0.046576380458936056 
271.107497028694 0.11796722660391391 
272.115306867434 0.11600764968770556 
273.123273859226 0.298211636838762 
273.135381373519 0.04045184245802731 
274.086235252421 0.06604017894482232 
274.110190574195 0.04080376878231168 
275.094448094799 0.05744752707568986 
276.101680120072 0.061464607761358675 
277.09773164971 0.04994689977417146 
277.133837814451 0.091499261931727 
278.117314273233 0.051025315854791566 
279.112832224651 0.04439784253488587 
279.149139980692 0.11718647922219133 
280.132810519826 0.03939368991186131 
282.112954748606 0.07322451064830199 
283.120533139114 1.0 
283.131060681471 0.16159761828872146 
283.158835759757 0.052775792264863654 
285.122781172119 0.07531212489064609 
286.08655061837 0.08787307486250229 
286.109259586385 0.04699607343157666 
287.094281502957 0.11885412922637334 
288.101613744174 0.08154029084184994 
289.097426147108 0.041099430116350304 
289.110064008946 0.04297617158448452 
289.133222935625 0.0467949752583239 
290.117034321158 0.07781879915274735 
291.112709598098 0.05853521139496034 
291.149452409131 0.04265359166853162 
292.097184628693 0.05503457505125788 
300.102417441797 0.061715076259519726 
301.097196718272 0.04800929536520251 
301.109255872361 0.05597039588942313 
302.080672057476 0.06965433990926169 
302.104705376039 0.07024985815073773 
302.117352392167 0.057573394277653824 
303.088682827003 0.06189741190087054 
303.11215183476 0.05390027827321411 
305.128529161834 0.12226343951117953 
306.112346528225 0.06412793786211121 
307.144469943711 0.09998770262969318 
308.115647916114 0.06447348492554891 
309.123901390092 0.13627023471249244 
309.134097013636 0.04226017528273779 
309.160110889524 0.05999471032233125 
310.131208831048 0.06927294058606916 
312.102008408197 0.05771517572354427 
312.147166971686 0.05015364931245493 
313.097554681528 0.05320556727271905 
314.080971545925 0.07382852854278422 
314.104715969178 0.06701479075255838 
315.088541341195 0.05338921403075699 
316.097219452082 0.06333380804799592 
317.105755317409 0.044680523813721965 
317.128693013701 0.12788008255514038 
318.112849660365 0.10222740640774373 
318.136255093315 0.054016741603766974 
319.14397716767 0.04747603256090476 
320.127135222261 0.04921235795293995 
321.123709019329 0.17841110741888594 
321.136284317285 0.045237504266780595 
323.138916048184 0.2701983629125779 
323.151731112398 0.06060767997902214 
328.096349143049 0.049918688159938156 
329.104434548308 0.10436167831978137 
329.127538500778 0.04326530446163966 
330.075980656302 0.06812101154912957 
330.100442060961 0.08263303878418793 
330.112746960442 0.16592498152003635 
333.123597235118 0.04286058082469239 
334.108107283607 0.03675018479963651 
335.139032680117 0.2226829968510594 
335.149634923882 0.050102560972577315 
337.154862909344 0.765202058905308 
337.166212337308 0.13100474488607977 
339.170900759999 0.053981793562417064 
345.124091127942 0.2502658176055844 
346.10751973124 0.08119483420025272 
363.133720937132 0.07921509321361482 
367.16531091505 0.122109496327743 
368.173082151906 0.08308966907866926 
373.118453962968 0.16313044932873086 
377.150258860848 0.06310259940185953 
395.160296057836 0.097772910068698 
455.18149842866 0.10445485802640771 
487.207035744904 0.06335641350811876 
END IONS

BEGIN IONS
TITLE=kopsidineC.mgf
PEPMASS=473.1930573
CHARGE=1+
RETENTION_TIME=211.236
PRECURSOR_MZ=473.1930573
SMILES=COC(N1C2=C([C@]34CCN5[C@@]3([H])[C@]67CC[C@]14[C@@]([C@]6([H])O[C@]5([H])C[C@@H]7O)(C(OC)=O)O)C=CC=C2OC)=O
INCHI=InChI=1S/C24H28N2O8/c1-31-13-6-4-5-12-16(13)26(20(29)33-3)23-8-7-21-14(27)11-15(25-10-9-22(12,23)17(21)25)34-18(21)24(23,30)19(28)32-2/h4-6,14-15,17-18,27,30H,7-11H2,1-3H3/t14-,15+,17-,18+,21+,22+,23-,24+/m0/s1
COMPOUND_NAME=kopsidineC.mgf
IONMODE=positive
SKELETON=Aspidofractane
109.064595745326 0.08781312326862989 
119.049402806853 0.2854347350991422 
120.057179235007 0.09226584131871912 
121.065264396476 0.1147091888869419 
129.033957001637 0.10836452342653281 
131.0497769233 0.11673213140725895 
137.059539073851 0.13643199772136763 
144.081268795065 0.12543641519674534 
147.044567843778 0.42019693894092164 
149.059962512434 0.261298951710976 
158.094499069064 0.10109888883857347 
159.04548890046 0.12524340085881863 
159.06845151244 0.10749231650676207 
160.075798228635 0.35758186702158734 
160.083967559098 0.09042272174499137 
172.076282078612 0.1508282684297191 
173.083380411159 0.49576825416201525 
173.091470849989 0.13552120105977408 
174.054853711093 0.09380450883068489 
174.091727449498 0.40307838508493354 
180.081064386323 0.10413973424268616 
181.05031711912 0.14314182189521574 
186.091927117476 0.12191621694522817 
187.099445408758 0.14829703075563044 
188.107427513084 0.14586239869372414 
189.102370939787 0.34382278645500064 
197.071053986842 0.1584941731458712 
198.080110224442 0.1179882012520665 
198.090694221796 0.10585651835211303 
199.086460354905 0.13179788163318612 
199.098270584774 0.12395418846363605 
200.058545131934 0.3419008466773117 
200.070726973906 0.2656981822787768 
200.09288370742 0.08983691896351105 
200.107051373106 0.13805092927117235 
201.10161371753 0.10615565448005246 
206.097289533581 0.11364934919187962 
211.087534171363 0.1276232984909967 
212.107124356521 0.104367269336053 
213.1030216143 0.18939792783587023 
214.109602610586 0.161169662950107 
215.081882811212 1.0 
215.091358396026 0.2062647951954459 
217.097460427277 0.11054523761239755 
218.08154751466 0.23607097362312393 
219.089205484627 0.39826483982303845 
222.09219325198 0.13356611873171007 
224.06911078143 0.09274696614406443 
224.107608400481 0.1754525270702445 
225.065793474586 0.10494788744133605 
227.083521360956 0.0859186163346177 
231.089261220102 0.10201283568317299 
232.097366081309 0.26919659176450283 
234.090943050221 0.11285655313538372 
236.107605725757 0.13802631846643842 
238.085742672757 0.08699479760402332 
238.123085726615 0.12944607313281106 
241.09821633412 0.2791225559009819 
241.105544752895 0.11503857989750092 
242.079497845367 0.09619320072375455 
247.099645806412 0.13609853772442596 
247.107582950324 0.11278108000086631 
248.115283716502 0.2886829675511462 
249.103181549395 0.1284617065722662 
250.085568550818 0.19111471194529708 
252.100967420154 0.09258007207356203 
253.133828726573 0.11578655147497476 
257.092586894976 0.12786297491469897 
258.091865907388 0.12114711289008946 
259.107662600049 0.5299763539388117 
259.114450904119 0.14141506220627006 
259.120529891958 0.09235594967845165 
260.114813245425 0.13600048827836594 
262.086637203834 0.11666328678281655 
263.117612836071 0.12127351398320296 
264.1024681284 0.1371575242449241 
264.140214183131 0.09506609149575283 
266.1170568856 0.1257758474156358 
271.106627888445 0.11825727938382422 
271.111273979296 0.11738146287935916 
272.115532935242 0.13890134742515198 
273.123386191219 0.30916696691848444 
274.131002501254 0.16150108845385738 
276.101957136275 0.12059294319629382 
277.132029472987 0.08856634515111363 
278.11885373915 0.09805482762264221 
279.112701429495 0.11689075624737075 
279.149976522708 0.1373992351618177 
280.096749187042 0.08993122756725148 
282.112515309131 0.13505556463420798 
283.120044776206 0.8338882249440679 
283.130830775578 0.19928910870165867 
285.123623754524 0.26891819434135256 
287.092136453313 0.1091503628288906 
288.10266898791 0.17108138563424669 
289.097820606638 0.12155322398260575 
289.132825232739 0.10102440013624542 
290.118457426157 0.15802217072548058 
291.111619642478 0.1128317454442119 
292.096063108065 0.13728366282278712 
300.103173015727 0.11067400134276552 
302.082369876066 0.11385214222288727 
302.107085180257 0.1609421934855528 
303.090153732808 0.11420489709074037 
303.112124845737 0.10635365660773856 
305.132011386824 0.14055079637282678 
307.108063617881 0.09596015281012732 
307.145775147069 0.22725518648098966 
308.127234618806 0.08802707319778359 
309.125249738913 0.13802946864944438 
309.160118610256 0.09156111912876438 
310.129997392918 0.10798177619131061 
311.139772237512 0.1022979272452109 
313.09621757283 0.17067402759429057 
314.080212190485 0.10933504230761407 
317.10154984855 0.12686062605949514 
317.128342155044 0.17837097473881375 
318.11263213652 0.18891916564777936 
318.117599868919 0.142803308479702 
319.109756185767 0.11779131481419498 
319.119663554446 0.08551663985729673 
319.143794491211 0.08656453510846146 
320.129172140372 0.10851625724131911 
321.124045276939 0.23178154005884283 
323.13926452656 0.2791536639581656 
325.155857303607 0.10379078584596524 
328.096508853616 0.09816324642109678 
329.104457295736 0.14445977971032756 
330.076872651841 0.10635871002631059 
330.100682501593 0.1333888553088131 
330.112116410688 0.19761649278312762 
334.108531620254 0.0881917358886568 
335.140829701971 0.42902604873201855 
335.154671753779 0.09367462941050232 
337.155597480504 0.6571111115486367 
337.167273105175 0.1329297817645094 
339.170341608066 0.08755612083839497 
341.113423982001 0.09843750922905178 
344.129966466397 0.10076300057556468 
345.122238506098 0.35118883312627447 
346.107269945138 0.13560231827217714 
363.133511283465 0.14558656079426616 
367.165373899083 0.19838782821789555 
368.173084985161 0.11538280301971293 
373.120068840765 0.2132394972570438 
395.156304940991 0.10740522707241025 
395.162957855242 0.10845102220157103 
423.157904782395 0.08976964943057161 
473.191654786032 0.09703849983034953 
END IONS

BEGIN IONS
TITLE=kopsidineD.mgf
PEPMASS=473.1956146
CHARGE=1+
RETENTION_TIME=206.234
PRECURSOR_MZ=473.1956146
SMILES=COC(N1C2=C([C@]34CCN5[C@@]3([H])[C@]67CC[C@]14[C@@]([C@]6([H])O[C@]5([H])C[C@H]7O)(C(OC)=O)O)C=CC=C2OC)=O
INCHI=InChI=1S/C24H28N2O8/c1-31-13-6-4-5-12-16(13)26(20(29)33-3)23-8-7-21-14(27)11-15(25-10-9-22(12,23)17(21)25)34-18(21)24(23,30)19(28)32-2/h4-6,14-15,17-18,27,30H,7-11H2,1-3H3/t14-,15-,17+,18-,21-,22-,23+,24-/m1/s1
COMPOUND_NAME=kopsidineD.mgf
IONMODE=positive
SKELETON=Aspidofractane
106.065704758728 0.10919822343106622 
107.073099493661 0.25435507633525994 
117.058091355815 0.054318271353095776 
118.065657451168 0.05596148968435141 
123.043198975786 0.07357952736358682 
130.064769519882 0.05972380073502033 
132.08017572951 0.0679777766984528 
143.072677942903 0.05809979438858938 
156.081974630994 0.08658512366366075 
158.095965834394 0.1316513132686818 
159.066772431656 0.06266161542571276 
160.076056185254 0.08174035758036924 
169.075823066464 0.05990269885213787 
172.075026291322 0.05818630228655 
173.082461761034 0.138750357526403 
174.090963973784 0.11279345497325974 
184.074679259784 0.0889303889347602 
185.08341449624 0.11393624427283178 
186.091041921086 0.2955106016697158 
186.100522119282 0.06357386090738852 
187.098351808631 0.10367520952396372 
197.070502147506 0.08231088877016315 
198.090069470944 0.0897935790956336 
199.086749933582 0.12944684594254754 
200.058774246645 0.063680875980162 
200.072231307595 0.10552031559462713 
200.107086947766 0.20654918214148874 
201.115199912673 0.21978208428448848 
202.087036613909 0.06956265751399075 
206.09641978907 0.05965985072935386 
209.084284553766 0.0673473429717055 
210.08995114214 0.12601184019514197 
212.070783596701 0.08459598167306166 
212.107119958587 0.07683142562641325 
214.086868480233 0.0731959892283366 
215.079436293808 0.11977981770200918 
218.081980021587 0.059614195282270466 
219.088908868456 0.06849693201871551 
222.090808456885 0.08869320726817449 
224.106523214427 0.11209691259086568 
226.084332602988 0.06675625064084922 
232.09723711698 0.1306876919174748 
234.092806534048 0.11157047182691944 
236.107432045486 0.1536820092714017 
237.115245808299 0.05539101246080702 
238.084265348281 0.07788009778684411 
238.121751885659 0.09502485145789824 
241.097759596744 0.11264823179583489 
243.113765439026 0.08996940113652922 
244.097074252794 0.129853589565086 
245.104678199748 0.06550639230225418 
247.098570114494 0.07350073663930579 
248.105282373477 0.06998078801517531 
249.101584649265 0.14184758851814075 
249.111604355513 0.06074360095196465 
250.086459209973 0.10030215703099282 
251.117495382188 0.07587670870637503 
252.101602071464 0.08641135234024641 
254.120098916517 0.05834453133010616 
257.090941421738 0.07992757729316087 
259.107619646762 0.4617318848791966 
259.120097679132 0.176308276803687 
262.10777783895 0.06021300478680633 
262.121250320126 0.08276668771350398 
263.1179283041 0.3681305011845592 
263.129246294772 0.07151013755997 
264.101088402196 0.13140468750843223 
264.137743680411 0.12428448848090405 
268.097454578425 0.06259701782505223 
275.119067226002 0.0842963070895462 
276.090362595888 0.06050733671162056 
276.10119705026 0.07003027506597374 
277.095871703461 0.09520002590379978 
277.133438827051 0.48481287202983253 
277.143337754671 0.07291018397094458 
277.147725800115 0.05495091769607288 
278.11647122749 0.06382377860885803 
279.113432918634 0.07680066486419394 
279.148317351958 0.0949868052519954 
280.096970642764 0.05511535285832241 
281.128201237124 0.08071883044344068 
282.111842657123 0.08517897906649183 
283.120099083563 0.7532010080895408 
283.13092608744 0.16614940016513674 
284.091034947581 0.057715878489592615 
285.12359581302 0.1020570854987291 
289.096755815183 0.09417110539068867 
290.103006848393 0.09564708231472038 
291.112344757109 0.10390553747686199 
291.14835638048 0.0611831020879542 
293.164682447279 0.09834172508513177 
302.105728064121 0.06223754863708238 
303.113537761946 0.076551124926471 
305.126913715969 0.3994787399960065 
305.13681443483 0.14186421012298908 
307.108357990592 0.05467709294607153 
307.142971865945 0.21811307008596825 
307.153106873431 0.08051764426527651 
308.115756716665 0.07026713293506241 
308.129221839482 0.054415248703460865 
309.122022271878 0.15575026578377885 
317.127676443318 0.08361746563699063 
317.131932417857 0.057412372302362104 
321.12221378008 0.19443035925332297 
321.134168322023 0.06729720832591297 
323.139722284061 0.2859649435243199 
335.138129563282 0.2716535258849116 
335.148793770736 0.0897593644934458 
337.155020192319 1.0 
337.186230121394 0.05762095185670882 
339.171277393623 0.06196890464703375 
363.132028297674 0.08049098493801977 
367.165500036673 0.09220851479484732 
373.11761559423 0.05407580099405832 
377.150722670134 0.08184845197813288 
395.159127336123 0.19951667826941033 
395.170900376046 0.05616197430127198 
423.155539164384 0.056945995974117786 
455.18048130319 0.15316042546991113 
END IONS

BEGIN IONS
TITLE=kopsinine.mgf
PEPMASS=339.206587
CHARGE=1+
RETENTION_TIME=103.001
PRECURSOR_MZ=339.206587
SMILES=COC([C@@H]1C[C@@]2([C@@]34[H])CCCN4CC[C@]53C6=CC=CC=C6N[C@]15CC2)=O
INCHI=InChI=1S/C21H26N2O2/c1-25-17(24)15-13-19-7-4-11-23-12-10-20(18(19)23)14-5-2-3-6-16(14)22-21(15,20)9-8-19/h2-3,5-6,15,18,22H,4,7-13H2,1H3/t15-,18-,19+,20+,21+/m0/s1
COMPOUND_NAME=kopsinine.mgf
IONMODE=positive
SKELETON=Aspidofractane
105.069874715997 0.0529503315524633 
106.065019397919 0.030271525317829708 
108.080923473149 0.10768234502989002 
110.096562953966 0.2832211332263752 
110.103685463441 0.04832645871611449 
115.054529595782 0.035456751686002076 
118.065157433433 0.027068543198894415 
120.080726621967 0.06964384364349417 
122.096459770492 0.10427278198726739 
124.111944782095 0.02816090310760938 
129.069887420063 0.06168700812069675 
130.065250504848 0.2985744920813941 
130.072651315263 0.04646062229846958 
132.080265796482 0.03095676315840565 
134.09595913011 0.03523237265190786 
142.065339608222 0.23172871472015277 
142.07305234672 0.047635219925976524 
144.080730181312 0.18799675948723651 
144.089106555249 0.03970002312130566 
154.06504541344 0.16743316442425302 
154.072605289567 0.03223850597535728 
155.072795913061 0.03370561459430934 
156.044761745273 0.02658052833065938 
156.080604652815 0.19989187700877373 
156.088728163873 0.04076723905135577 
157.088369411089 0.06800131314896299 
158.096373841827 0.02868111130525948 
167.072686056948 0.13560924640428398 
167.082043924631 0.027891305153580185 
168.08082240202 0.37210652744463685 
168.08924978465 0.06870751901330269 
168.100963834946 0.025021128637413802 
170.059995174673 0.11282597069771629 
170.096233453373 0.17145493022131147 
170.104606509684 0.03326136076826274 
172.076259409828 0.03181029939443359 
174.091416363906 0.029593534506342473 
180.080758773725 0.2893588338390016 
180.08975674309 0.0562695979540292 
181.088511214421 0.07645799247057328 
182.083245406913 0.028513857781025352 
182.096244895763 0.2247680368246505 
182.104545183306 0.042878373107274034 
183.10388708464 0.06655889667247346 
184.11147600182 0.026189764145032362 
188.070352806521 0.033740289492866817 
192.080098834349 0.035877665348222745 
193.088772236365 0.09744190110082124 
194.096319421281 0.37919576685957956 
194.105122074021 0.059915386611175535 
195.103333726825 0.08295264368302983 
196.075410984683 0.04761358120784995 
196.111941479928 0.4313733173072681 
196.121004233551 0.07484507842711582 
197.107238811949 1.0 
197.115475677561 0.17213688518947998 
197.138974012255 0.057525737896172977 
202.086241956024 0.07078374166265133 
204.080521161558 0.043715152574142616 
205.089062110436 0.050434027501998845 
206.096152596066 0.13653438102852747 
206.105537162512 0.03332051954103326 
207.104122021259 0.15665560020968025 
208.111992277475 0.2945310169668024 
208.121470586797 0.13197115308245835 
210.127247584163 0.050513063537700964 
218.096469219722 0.05515575111591187 
219.103867341939 0.07982463107397583 
220.111797974338 0.18357744843154591 
220.122088729602 0.029950273307952843 
221.11954053369 0.04575007457062323 
222.127329145867 0.10282143468584147 
223.12275916356 0.19890948626576793 
223.131342113683 0.053376681368993095 
224.130282952109 0.074838406783191 
224.141150317592 0.026110396292119163 
225.138526988257 0.5765334632362414 
225.147812149358 0.10723354460205761 
225.172484847253 0.029810239384937966 
234.127324716502 0.13306558508375735 
234.136674286029 0.030575593432137203 
235.123130745608 0.056687758239392 
236.106420317188 0.028440688556012686 
236.130342965216 0.0643458523731108 
236.142887798567 0.07576096452909313 
237.138863753967 0.05940918886576758 
249.138695003507 0.0331352666980834 
251.15407037542 0.14788641261470195 
251.164492778881 0.030223658920146775 
279.149405504413 0.030928809323357637 
339.206543822548 0.14639877721827746 
END IONS

BEGIN IONS
TITLE=paucidactineC.mgf
PEPMASS=471.176008
CHARGE=1+
RETENTION_TIME=327.073
PRECURSOR_MZ=471.176008
SMILES=COC(N1C2=C([C@]34[C@H]5OC([C@@]6(C[C@]7(CC[C@]146)CCCN(C5=O)[C@]37[H])O)=O)C=CC(OC)=C2OC)=O
INCHI=InChI=1S/C24H26N2O8/c1-31-13-6-5-12-14(15(13)32-2)26(20(29)33-3)23-9-8-21-7-4-10-25-17(27)16(24(12,23)18(21)25)34-19(28)22(23,30)11-21/h5-6,16,18,30H,4,7-11H2,1-3H3/t16-,18-,21+,22+,23+,24-/m0/s1
COMPOUND_NAME=paucidactineC.mgf
IONMODE=positive
SKELETON=Aspidofractane
105.069796481106 0.1563039298523344 
110.059919236665 0.09421494705100167 
120.080556499726 0.32888883791567325 
120.08814935712 0.07655289901414758 
121.05252165778 0.10177652687985035 
123.080728239907 0.1346265085979642 
146.09632395902 0.1584682107442713 
148.076237094023 0.07830710419031786 
149.047506931191 0.10960216698551555 
160.112529887122 0.08374384270182997 
172.075767660833 0.36364417561018364 
174.090490578295 0.09562480913573924 
186.090808809923 0.0845986749398478 
188.069850163957 0.11602848961493006 
188.10673769382 0.18338313492579744 
190.085370526713 0.08049141299123153 
192.06523854803 1.0 
192.074312578536 0.21394336175812856 
202.051243349508 0.11518005946063643 
211.063146542698 0.10280626952293179 
214.086139549796 0.09970108773798976 
216.102258690445 0.10105901420235514 
218.081155862497 0.19365159791901465 
223.062035024222 0.12691367526166378 
224.070910546923 0.10023485718902649 
225.078337369284 0.1262042079835011 
237.101556715538 0.10048563399800885 
238.073519978445 0.20007538710353298 
238.084385045006 0.14588120060638343 
239.056014054123 0.08801512808960452 
239.094412738233 0.08326231699284199 
240.101282234952 0.11174018906346074 
244.061257844962 0.16621466357905923 
248.071282125245 0.07874497932845907 
249.078151152012 0.11770117948977789 
249.102900206479 0.08008291211958955 
250.085769606641 0.21520761923281811 
251.080364534261 0.0764135937805982 
251.094062205182 0.11628672981563368 
251.117650003988 0.14004825185455014 
252.064928255251 0.11461345793317457 
252.090451467815 0.1270041945630903 
252.101651927233 0.155333449278379 
252.125400676979 0.2016595091142392 
253.096990526736 0.12467003592014032 
254.08161036423 0.11065080775809298 
254.116724607366 0.12956133059264807 
255.08867912014 0.09336350415142605 
255.112895137606 0.1757227507459968 
256.060551465164 0.33899991920364925 
256.071277231481 0.0896734389528793 
256.096558177236 0.29529946688102804 
262.086822232246 0.12229229517782729 
262.109028475528 0.08176412669415568 
263.081596491282 0.08867341293371549 
263.093239773187 0.1115291599507553 
263.117877049863 0.10903806466720804 
264.102307010093 0.08474236234835278 
265.096993452548 0.15429744149454075 
266.067912611648 0.16495187824126883 
266.080027907131 0.12815906884259912 
266.105480447827 0.11548082045270605 
266.116548872661 0.08726652935851806 
266.141389688368 0.10359427359287676 
267.08839191987 0.09270936183207779 
267.113464089491 0.2260447378980076 
268.096333379464 0.21199141093708704 
268.121097019292 0.0965343158534765 
268.13342743051 0.08463513600490803 
269.104914684591 0.09203710880529585 
269.127325017512 0.08570205866362834 
270.11184813448 0.16452673879909233 
273.086781188447 0.07878746588408325 
276.101047141054 0.10879817482413098 
277.133656737582 0.10003105181784942 
278.08037941804 0.11257115898941567 
278.115769820558 0.10643142375494877 
278.141770332709 0.13086386362671537 
279.113138195178 0.1502788843530335 
279.124721656417 0.07556759436397523 
280.095872141064 0.17920709337182342 
280.133843541627 0.10153999213947366 
281.090966072164 0.1361928280229133 
281.104578153356 0.12802955503121616 
281.12838506001 0.6533754387310317 
281.14167348962 0.09202694078996919 
282.075874364008 0.29550306683775407 
282.09885841182 0.11990274310457923 
282.112135423953 0.25037282722864407 
283.107260693393 0.14778679623297283 
283.143516347455 0.22221081411224666 
288.125587848666 0.08227749164305541 
289.133585569249 0.0775775747674366 
290.103583572336 0.10015193822228856 
290.119206207311 0.0827087592830214 
291.087867691675 0.09065134868281406 
291.113004992217 0.19091938030568406 
291.125094038055 0.10270236404644557 
292.08445822878 0.09046106642966403 
292.096759220934 0.11933460096873454 
292.133055194679 0.07583624223019839 
293.091615759583 0.45885377366888014 
293.103698804798 0.10517257552747007 
293.129374513347 0.3510971185830237 
293.138387762384 0.07708276559061447 
294.112297136412 0.1203415083720083 
295.10827556202 0.08755664303487527 
295.144048770194 0.3531670115347061 
296.091919222263 0.2088778071596522 
297.122874480842 0.16212773766109626 
297.159437750333 0.08691804374232263 
303.09547576166 0.09630195787360438 
303.112721114216 0.1255744757480852 
304.096777855178 0.08430096092880199 
304.118487621349 0.12658347153161123 
304.131924727627 0.08915853339559673 
305.092812068683 0.09090938346906663 
305.104133502851 0.08033858463965511 
305.128504691387 0.2496004346569784 
306.098971646863 0.0898903566131813 
306.112039078097 0.08254579715186015 
306.136752470033 0.12331238334170967 
307.10830273418 0.12953818723116384 
307.144618949325 0.15996711999353627 
308.090696078845 0.0905946200585842 
308.114876196234 0.07852778778222233 
308.126936729994 0.14516779621790912 
309.124110607082 0.3520762607996647 
309.135548395845 0.09485782581128437 
309.15995698739 0.10831572475011332 
311.103355059638 0.2353914377779086 
311.140195775896 0.07908600155293324 
311.174601395765 0.13691657160542348 
316.121292441812 0.08818596444138908 
317.128558264032 0.10794132267734456 
319.107801025824 0.22884594053114699 
319.11915027939 0.09943000913409591 
319.145319215146 0.10067639555154465 
320.126935600269 0.11933069809416472 
321.085281805487 0.08719987236915441 
321.123056732254 0.4486354318017175 
321.160021598943 0.14135550942099143 
323.138453457803 0.5090286498382018 
323.151941742375 0.09002305434855545 
324.085751232615 0.09035767448930543 
325.118619163001 0.16426281546524318 
325.154203734195 0.08473565214295202 
331.107727595419 0.09249316312235444 
333.123365930253 0.25555064082461576 
334.130490024023 0.14139361380166002 
335.102196243329 0.08015018535230632 
335.138585225196 0.14832683082476641 
337.117486557784 0.29246375462011337 
337.1539516111 0.23018674912459205 
337.165067578107 0.07969108405422393 
339.170291886653 0.24724210558028897 
349.118058592043 0.11883229416444933 
349.154251549449 0.1502954544520843 
350.125694398868 0.1243250081138708 
351.134406926765 0.33496718846502 
361.117759137386 0.09869099641072482 
365.111140158588 0.07738236256746153 
365.149246131173 0.17119966147698468 
367.165568071618 0.1519991276732979 
379.132413744743 0.07738862770821836 
393.144921509752 0.14064686380063296 
395.15959630051 0.11925332531760496 
END IONS

BEGIN IONS
TITLE=paucidactineD.mgf
PEPMASS=337.1551781
CHARGE=1+
RETENTION_TIME=287.636
PRECURSOR_MZ=337.1551781
SMILES=O=C1O[C@@H]2[C@]34C(C=CC=C5)=C5N[C@@]36CC[C@]7(CCCN(C2=O)[C@]47[H])C[C@@H]16
INCHI=InChI=1S/C20H20N2O3/c23-15-14-20-11-4-1-2-5-13(11)21-19(20)8-7-18(10-12(19)16(24)25-14)6-3-9-22(15)17(18)20/h1-2,4-5,12,14,17,21H,3,6-10H2/t12-,14-,17-,18+,19+,20-/m0/s1
COMPOUND_NAME=paucidactineD.mgf
IONMODE=positive
SKELETON=Aspidofractane
106.065471827215 0.08089443089866588 
110.096317054439 0.047057179826424406 
112.075817923594 0.06824159364426897 
117.069569617105 0.027353235785785062 
120.080859472288 0.050661472180299 
122.095938218281 0.0565706067704899 
124.076401868557 0.03144207315480347 
128.050141874572 0.036667689922220435 
130.065568006226 0.20257008654082256 
130.073706961198 0.03293979948518477 
134.096896515498 0.029297716863024605 
142.06589634681 0.025339316871637048 
143.074196689083 0.03960877652462834 
144.081121194813 0.12761129249841802 
148.077077391993 0.028726699101598512 
148.112217741507 0.02996090678279113 
150.09127484456 0.029728893216923895 
154.064788865986 0.041101721681560864 
156.081047957145 0.14004793205540905 
156.089693490644 0.028958301043261542 
166.065866669252 0.04942845187661849 
167.073301327446 0.1880085636832514 
167.080709781383 0.04956674177752946 
168.081128978488 0.24843547181078712 
169.089322172157 0.047397957172401355 
170.096906619979 0.8980620574149271 
170.105387673751 0.19062396054993624 
170.118074515601 0.05258274398510174 
170.126885790713 0.04328622716494937 
172.076670440745 0.02556032740589202 
179.073313374586 0.0428848777341544 
180.081282234302 0.465477315469265 
180.089953624566 0.09345034648467387 
181.088720476077 0.1140240524687874 
182.096868123799 0.21401323941757708 
182.105835562378 0.048255148745947274 
184.075780020634 0.03561812736001175 
192.080722296799 0.06334280649498665 
193.089227384159 0.13283263470679135 
193.097611077181 0.03553192375263222 
194.084088638007 0.058492939299203454 
194.096873308457 0.34287900417339445 
194.106860231285 0.056810267047535154 
195.091785603251 0.15611245319951536 
196.076018262321 0.027957658434551988 
196.111800263758 0.03324102924415822 
204.080916918573 0.0808372151342821 
205.089426889527 0.0421536906621941 
206.083703408213 0.039912286048425054 
206.096655063445 0.4062153038396147 
206.106940482731 0.06821634208251134 
207.091412932414 0.12874598211239524 
207.104620751319 0.1670717734876333 
207.114107305034 0.033675720235493374 
208.099335997131 0.07740996868331392 
208.112515236052 1.0 
208.121424709233 0.2035703333570281 
208.135394039833 0.059047460429061234 
208.146115533343 0.051571715781086214 
209.107696575997 0.4071906948865666 
209.119678959853 0.2518098403832158 
209.129617860744 0.04998444535459129 
209.140991720894 0.03084833690364558 
210.127930547689 0.06997250508632946 
211.086327698914 0.02985549932311566 
213.078602513866 0.03183310031709312 
214.087022963708 0.0454812607289453 
217.089483778789 0.02939330866859993 
218.096385240412 0.09943787965406468 
218.106607002662 0.025758318648112125 
219.093706750437 0.05614552562115279 
219.104296015528 0.059783476169570804 
220.101092842063 0.026524636262730862 
220.112221472373 0.24682364641734164 
220.121869439931 0.05328836286130116 
221.107137090373 0.11199151547524942 
221.119349624215 0.04897671014420937 
222.114862557298 0.062170342444424 
222.128027954967 0.06562160558453724 
223.12350626344 0.10100418890954574 
225.077700103213 0.026781236458948955 
225.103040847863 0.04091337194473913 
226.086438826233 0.03593596457245464 
232.112777663736 0.0485519456288755 
233.107760831994 0.05299022028385921 
233.119580058272 0.06462447761326354 
234.091932636133 0.043996453065895814 
234.115964024574 0.030666003212885228 
234.130373023372 0.02694002841156911 
235.086973034707 0.06846117932550942 
235.09807872792 0.02497168896218614 
235.123506812183 0.47447003779501773 
235.133179725043 0.08774509252916318 
236.094452620041 0.04544620934478767 
236.107385043591 0.05765683555027269 
236.143973703378 0.04613995444586595 
237.139129882538 0.42806669135356445 
245.108481508871 0.03356871377410158 
246.12775545745 0.05219068776230158 
247.123657106893 0.1132860735974578 
247.130704746008 0.025110390487301314 
248.130992779938 0.053208096141482204 
248.143979390291 0.06470306617286538 
249.139524969615 0.06577867188183979 
250.086597630927 0.062072724181228 
250.110751075095 0.028380317333764376 
251.09593400905 0.026233412138259502 
251.154163019685 0.06362924944600923 
252.10230088947 0.8085779634449209 
252.112347495207 0.1597518286009479 
252.128090329355 0.03657895324281506 
252.139586194068 0.039335853845543715 
253.109873703769 0.18573513154005555 
253.120694517161 0.04305301038986986 
254.118221683031 0.4735977111161174 
254.129975034166 0.09673735573561124 
254.143137564183 0.024987773969550257 
261.103101518288 0.047152613314998114 
263.118484121997 0.14013147593716144 
263.128364190906 0.026984879618126723 
263.154272164841 0.05264244532641087 
265.132191093609 0.038712575641884406 
265.17031637741 0.06220591627468696 
275.119772719239 0.025734476107668856 
275.152727353772 0.028109626924402522 
281.128798060127 0.07185430846262951 
281.16507467903 0.07069930677734503 
291.14993090026 0.02701503900693444 
293.165971928476 0.03134291921669181 
309.158545536541 0.04245914748511068 
END IONS

BEGIN IONS
TITLE=paucidactineE.mgf
PEPMASS=323.1751633
CHARGE=1+
RETENTION_TIME=92.384
PRECURSOR_MZ=323.1751633
SMILES=O=C1[C@]2([H])[C@@]34NC5=CC=CC=C5[C@]36[C@]7([H])[C@@](CCCN7C[C@@H]6O1)(C2)CC4
INCHI=InChI=1S/C20H22N2O2/c23-16-13-10-18-6-3-9-22-11-15(24-16)20(17(18)22)12-4-1-2-5-14(12)21-19(13,20)8-7-18/h1-2,4-5,13,15,17,21H,3,6-11H2/t13-,15+,17+,18-,19-,20+/m1/s1
COMPOUND_NAME=paucidactineE.mgf
IONMODE=positive
SKELETON=Aspidofractane
105.0693430385 0.06866735926975104 
106.064814338335 0.10804661721379197 
108.080632529599 0.1339590912282073 
109.088372801643 0.05283390287486767 
110.096266444987 0.5583676608771827 
110.103562599816 0.08885302715850246 
115.054120956432 0.07074935319195147 
117.057076612589 0.050705272371811654 
117.069527368372 0.04909088928368494 
118.065241883696 0.06677509340285187 
120.080612122676 0.24716471376344584 
120.087497611165 0.03488129200448071 
121.088875143191 0.02965484780081805 
122.059931809595 0.024645245541511745 
122.096179653539 0.40171526473911356 
122.103845907193 0.06357427113266542 
124.075941234225 0.03193305428622514 
127.053453447972 0.03789664005655183 
128.062076451442 0.05636986180562593 
129.069917047616 0.2823256177488071 
129.077467951853 0.04538882319842214 
130.065094686128 0.5148979407623775 
130.072587165153 0.0823366673502779 
131.072877643642 0.034514130520866805 
132.080688317871 0.05694091350980648 
133.088510707325 0.024906441519940987 
134.096558334749 0.130682771993981 
136.075301721498 0.024565840580707567 
136.112337335572 0.05791979753118357 
141.070157149776 0.035648175847404144 
142.065340834486 0.10437953288717614 
143.072747678164 0.11749250477346242 
143.082781617732 0.029942137439058596 
144.080811637423 0.47539034143787307 
144.088786378476 0.0738386765102073 
146.095988631872 0.04386572468958228 
148.075514619966 0.0509140908183864 
150.091496934784 0.1275051556160853 
153.069404470281 0.027421721614369253 
154.064775201801 0.1514938749932129 
154.073981836929 0.02775525011698052 
155.060149774161 0.03367299473942135 
155.072706784085 0.09711662465281945 
156.080806772475 0.7554363520475654 
156.08918409514 0.11814759570009688 
156.105892328166 0.032618060409329803 
157.088770146781 0.04301350472262388 
158.0964036921 0.17315365309508157 
158.105035375687 0.03099551548725284 
166.065463628378 0.024878860746316712 
167.072917560662 0.32822763354887263 
167.082250058736 0.06314793635291216 
168.080858295211 0.5598871107695744 
168.089210297986 0.09668811107840998 
168.101296901066 0.0509275958868507 
168.109999936065 0.02801131036514869 
169.076082493151 0.030876857638594685 
169.088871513668 0.09829249937835184 
170.060140135766 0.045819619319614306 
170.096201416646 0.31054221898823003 
170.103944500435 0.055199987411408656 
172.075777089463 0.026235367924061743 
179.085135237763 0.025674622264445498 
180.080870120106 0.7265524517146249 
180.089908300116 0.14673578518053043 
180.107039313149 0.03355672318967237 
181.076221590889 0.030227853503380763 
181.088743244751 0.15289252282633242 
181.097828443127 0.03292053244207951 
182.083869915336 0.07815016529442952 
182.096510583927 0.39534938009833626 
182.105359414279 0.08065811357191942 
183.090272765965 0.026070903511559888 
183.104114132035 0.05732192590230631 
184.112073802656 0.08804896547025479 
186.091040756914 0.04245244780662817 
191.072461062334 0.048898463673095034 
192.081378301308 0.07725608134443389 
193.088673280859 0.17098715306585804 
193.100437144899 0.030544522285438008 
194.096360268166 0.2839099127202528 
194.105877989783 0.05209874989062797 
195.092040683565 0.22377639065027338 
195.103627714243 0.09214466712340658 
196.075880967224 0.047613666506773115 
196.099009110466 0.08411608548760213 
196.111883979506 0.20100366348758622 
196.119712996083 0.044130050523827194 
197.107405272219 1.0 
197.116548410425 0.18353284290855945 
197.135531971877 0.045429960916573954 
204.080618863791 0.136461021882361 
204.090318429989 0.0285476396909985 
205.088636546852 0.15123082876852798 
205.09638097025 0.03439654477751567 
206.096428664084 0.2412971851702244 
206.105747036883 0.05540801042501367 
207.091955019472 0.039469211037704566 
207.104304084956 0.09684460386919347 
208.099287157858 0.057980959409747235 
208.111785947937 0.43093445736081565 
208.121419892316 0.07800428980458979 
209.10720338442 0.2123126452745921 
209.117644237299 0.05380886160745936 
210.114914173156 0.08715996537445699 
210.127342115216 0.08931097175279189 
217.08864638686 0.061252108329670304 
218.096365523497 0.13347972181979847 
219.103910324608 0.1682086192424919 
219.113662418236 0.030016475837686022 
220.112162262276 0.23302450936483987 
220.122680412922 0.04731266429581529 
221.107252407316 0.10605459367727625 
221.118935581548 0.04823299753381195 
222.115055728525 0.09775950741257068 
222.127324775896 0.1525068761721829 
222.137226650431 0.027447210053442722 
223.123043855758 0.5852932398226944 
223.132109078667 0.1222209041859487 
223.15752671748 0.03115560501842119 
224.130875903611 0.3114751235255526 
224.140769603065 0.08451162317781005 
225.138565340614 0.47955114755039496 
225.148519810069 0.10034902215349989 
232.112028784393 0.06380387458857958 
233.107236118805 0.02528321736727596 
234.128086819929 0.22061696547855494 
234.137798767462 0.04097679860363471 
235.123203809685 0.19330179729808714 
235.134467508706 0.037937898818851214 
236.106691842516 0.0345427833997981 
236.130731780309 0.1330529374474971 
236.142658724301 0.06186896659769456 
237.138491062365 0.030185660971943005 
246.128021637131 0.027537975872097147 
247.12219330442 0.04334295230826002 
248.144155382941 0.03431127782156502 
249.138178083428 0.10615608054900091 
250.158669477835 0.026221828271555284 
251.11801160284 0.03428954175106614 
251.154061131029 0.24678722894324656 
251.162366572104 0.05971225385240292 
263.153881918298 0.04681569160994596 
277.169197558599 0.030363111692276727 
279.148554364342 0.044466778050338454 
279.186976281363 0.03460787056714716 
280.133832308918 0.05148509064650371 
305.163140838451 0.044217461690391896 
323.175210612245 0.5868436424328214 
323.187233760036 0.11464336762802234 
323.215567079703 0.032496065200603004 
END IONS

BEGIN IONS
TITLE=paucidactinine.mgf
PEPMASS=441.1657376
CHARGE=1+
RETENTION_TIME=225.532
PRECURSOR_MZ=441.1657376
SMILES=[H][C@]1([C@@]2([C@@H]3C4)C(C=CC5=C6OCO5)=C6N(C(OC)=O)[C@@]27CC8)N4CCC[C@@]18C[C@@]7(O)OC3=O
INCHI=InChI=1S/C23H24N2O7/c1-29-19(27)25-15-12(3-4-14-16(15)31-11-30-14)23-13-9-24-8-2-5-20(18(23)24)6-7-21(23,25)22(28,10-20)32-17(13)26/h3-4,13,18,28H,2,5-11H2,1H3/t13-,18+,20-,21-,22-,23+/m1/s1
COMPOUND_NAME=paucidactinine.mgf
IONMODE=positive
SKELETON=Aspidofractane
100.074918460297 0.035959787195230436 
106.066368561767 0.03890953695369687 
108.083178678427 0.03786379233593547 
110.095433737358 0.06745345177173408 
122.095555284972 0.04814921106542763 
123.078748873842 0.04022514606493593 
136.076056973738 0.045473619730458305 
160.07596217376 0.03591791387067013 
165.06901578025 0.04330865324488238 
167.072620109449 0.040659726314509356 
170.060859502862 0.03094142163615249 
179.084730132862 0.03227175922763309 
180.079758199421 0.07805801760060896 
180.084708239109 0.03812570705338061 
184.062848279791 0.040872741276453274 
188.07066890503 0.033164806589230794 
192.080858013962 0.25447037901439296 
192.09059884861 0.04610027827969549 
194.096858458001 0.1436853330010292 
195.068552568094 0.03937007596202424 
196.074701226995 0.06581986663293579 
198.055662596139 0.03137871937290605 
200.070584827931 0.06584904583920434 
202.049830168995 0.04443129073884874 
204.080999296987 0.05880923014789286 
205.087821348498 0.03671682507414912 
206.095916380778 0.11182219526421558 
208.075137319655 0.05633697741858237 
208.109189887793 0.06396025712533397 
208.112729616936 0.09674479567424085 
210.091779403668 0.06252969530362665 
211.099912314953 0.0318895619215487 
214.086606361683 0.03181245885296518 
216.064912355626 0.058173615901954266 
220.075992591856 0.6597417786629213 
220.097468576312 0.034496885774705305 
220.110454541084 0.041814635845457554 
221.106689728903 0.03337674056179919 
222.09178141273 0.48208868166589475 
222.101848292009 0.06898515366188905 
222.115767363633 0.056876946625398904 
223.06153881093 0.05782447885427138 
224.07058706477 0.20378061020348878 
224.108550793723 0.048335321402914015 
232.059300526038 0.036049674464553684 
234.114487831035 0.03233379600679522 
236.073740469606 0.03163107033712606 
236.106585954036 0.10598950689618675 
236.113808046246 0.044769099918700594 
237.103673420434 0.10938456422240456 
237.114149694208 0.034454201708113356 
238.085661014646 0.3446482393010203 
241.057946621318 0.03772714476925006 
241.063796829051 0.033421083646807744 
242.081119885397 0.03403217294628909 
246.075219264464 0.03886961541550905 
248.068450312259 0.05114358166311717 
248.072400398871 0.04326271119642253 
250.086089575868 1.0 
250.111358399751 0.057664687605330785 
250.120810182227 0.06216439596340551 
251.095102617729 0.06711193419777452 
252.101164661064 0.08030437357791718 
253.093184093975 0.04285315885364079 
254.080306538958 0.250723624797596 
254.090108827988 0.04363990141977445 
258.090922935692 0.039886841431620294 
261.100397772606 0.05247345382861665 
262.084414090224 0.05068959615287893 
263.081377885886 0.033178026188469 
264.06746654725 0.03482173058892151 
265.096488311156 0.1039914031317163 
267.075536357901 0.030589589621901447 
267.113644707658 0.03716032348607063 
269.1264543659 0.038560437440367294 
270.064469272892 0.037647294186003745 
274.085120713015 0.03161152995278929 
277.093938621731 0.031005800558961592 
277.100534183715 0.0371472315036337 
277.136151523235 0.030297887641664037 
278.079840074916 0.035362818319466895 
279.112658982179 0.04223078672755239 
280.095936966461 0.2092718110250407 
280.103479040522 0.06738814950383339 
280.110608467711 0.04658441888938852 
280.131647388921 0.03222507399897757 
281.091735839059 0.16373415768782376 
281.103325560028 0.051227651107676304 
282.076424451801 0.4710379674997542 
282.085291603686 0.09001954038433677 
282.111182118614 0.0491642600890465 
284.091265553345 0.0321200228509143 
291.111050067948 0.0381655535228618 
292.094833564904 0.035161078677259365 
293.095160852282 0.05963792110729345 
293.129472552657 0.04308592439230006 
293.137147669519 0.038519630091441194 
294.101219293358 0.06684673897784948 
296.091755864394 0.03055765539409945 
305.130089066158 0.0459841244699211 
306.111459911914 0.03451978923709926 
307.144993771521 0.030426540391092948 
309.15676274054 0.034907151270200054 
310.106384858675 0.12843189729399834 
310.117000327741 0.03138274305558163 
311.140285195618 0.03049281104530922 
313.083383807185 0.056348688136817225 
317.126840712734 0.06821924266184626 
318.132706311874 0.03131420532642501 
319.144793378862 0.04043449767399613 
326.120144462053 0.035516881826091334 
326.129381496781 0.03857421254803459 
327.135041339462 0.15237558675577825 
327.14437076376 0.036850507426922495 
335.137271142061 0.13388211060172825 
335.142945740427 0.0626826477933929 
337.118558550667 0.0745807149994032 
337.153877467278 0.04385052919684742 
341.109671144158 0.040757713497278386 
341.117431141674 0.03355303191245788 
363.134281290451 0.0538306510033308 
365.149079893469 0.0490222826441901 
369.142213052727 0.0427613948666517 
395.161722909248 0.06098961574581136 
441.165613333244 0.08933671542879622 
END IONS

BEGIN IONS
TITLE=Pleiocarpine.mgf
PEPMASS=397.212212
CHARGE=1+
RETENTION_TIME=944.115
PRECURSOR_MZ=397.212212
SMILES=[H][C@]12[C@@]34CC[C@]5([C@H](C(OC)=O)C4)N(C(OC)=O)C6=CC=CC=C6C51CCN2CCC3
INCHI=InChI=1S/C23H28N2O4/c1-28-18(26)16-14-21-8-5-12-24-13-11-22(19(21)24)15-6-3-4-7-17(15)25(20(27)29-2)23(16,22)10-9-21/h3-4,6-7,16,19H,5,8-14H2,1-2H3/t16?,19-,21+,22?,23+/m0/s1
COMPOUND_NAME=Pleiocarpine.mgf
IONMODE=positive
SKELETON=Aspidofractane
108.081561228402 0.07878002952224797 
109.089295099144 0.28855351390563283 
124.112706922512 1.0 
124.211897227342 0.029789241474447496 
198.091950539257 0.06222226268854623 
279.148568519786 0.032460692747129906 
293.165105397773 0.03199006114048636 
321.196659758644 0.08071569896820784 
352.17648739189 0.07934275092052628 
379.203575110248 0.047812990086411294 
380.209835981228 0.0927518124371017 
397.212212033289 0.05820257673034414 
END IONS

BEGIN IONS
TITLE=Pleiocarpinilam.mgf
PEPMASS=367.2031605
CHARGE=1+
RETENTION_TIME=979.403
PRECURSOR_MZ=367.2031605
SMILES=[H][C@]12[C@]3(CCCN24)CC[C@]5([C@H](C(OC)=O)C3)N(C)C6=CC=CC=C6C51CC4=O
INCHI=InChI=1S/C22H26N2O3/c1-23-16-7-4-3-6-14(16)21-13-17(25)24-11-5-8-20(19(21)24)9-10-22(21,23)15(12-20)18(26)27-2/h3-4,6-7,15,19H,5,8-13H2,1-2H3/t15?,19-,20+,21?,22+/m0/s1
COMPOUND_NAME=Pleiocarpinilam.mgf
IONMODE=positive
SKELETON=Aspidofractane
110.095268116927 0.059958195904302805 
143.072918541143 0.035454395364133966 
144.079591443757 0.0465836105650287 
158.094849180309 0.03535575767198167 
166.064801011455 0.025756499230502924 
167.072264271755 0.03314122719706668 
168.079779142517 0.038076927202042525 
180.079800689601 0.05126900643712041 
188.069580424154 0.03558842658111737 
193.082757306512 0.024817858732187417 
194.093047310981 0.03622999355953893 
202.084909245042 0.08170182898193419 
206.094074815439 0.044374513075296426 
208.109079237536 0.031775930328382634 
221.10616073221 0.07028730293780322 
253.097292235337 0.03917853967336331 
254.10459970504 0.032167509658493805 
268.131680630774 0.03242811712250116 
279.147028036381 0.02818757548376865 
281.127669679084 0.13423832097197336 
282.135390812357 0.15925004408805937 
311.174454441837 0.07705471016078999 
367.20096207028 1.0 
367.363461006459 0.06564660172051563 
368.204193175798 0.04320107618821056 
END IONS

BEGIN IONS
TITLE=Pleiocarpinine.mgf
PEPMASS=353.2216653
CHARGE=1+
RETENTION_TIME=1034.082
PRECURSOR_MZ=353.2216653
SMILES=[H][C@]12C34CCC([C@]51CCN2CCC3)([C@H](C(OC)=O)C4)N(C)C6=C5C=CC=C6
INCHI=InChI=1S/C22H28N2O2/c1-23-17-7-4-3-6-15(17)21-11-13-24-12-5-8-20(19(21)24)9-10-22(21,23)16(14-20)18(25)26-2/h3-4,6-7,16,19H,5,8-14H2,1-2H3/t16-,19-,20?,21+,22?/m0/s1
COMPOUND_NAME=Pleiocarpinine.mgf
IONMODE=positive
SKELETON=Aspidofractane
101.039411418721 0.035604885049758665 
102.046311926113 0.032164380967903916 
103.054114716468 0.1124478391716536 
105.068644169699 0.03304859332292597 
106.065358222727 0.06258186767363316 
107.073068633805 0.024828520133067147 
108.080389811246 0.12177142101443937 
110.09656468322 0.056974435277141085 
115.053794141426 0.331181476006873 
116.057986017563 0.07509270731718029 
117.061320234158 0.15148656225798376 
118.06418443528 0.05464414981326777 
120.080284389704 0.0874249886906589 
122.09593401579 0.04665507998034346 
127.053934611448 0.19082096300442467 
128.05926013795 0.36034327693221374 
129.066433643067 0.18433098720421864 
130.065223546811 0.23714387775468465 
131.072710057523 0.1255989802805107 
132.080528023585 0.03150295409261509 
139.054369979147 0.03773450107871838 
140.054513125167 0.05897571285448746 
141.065154466653 0.081961857142648 
142.064934166725 0.12671771445414312 
143.073282133839 0.37784325619232173 
144.08060978527 0.8876712810079685 
145.08690998095 0.1292793107133498 
146.095932094073 0.027005549995095628 
151.0537214256 0.05132386390531678 
152.062005577352 0.16933750929025163 
153.06197415107 0.11192451069714829 
154.06509874416 0.25386301228143204 
155.071955240923 0.11179855855310705 
156.080796325922 0.27775556304902765 
157.08781815259 0.21211014493036523 
158.05866778094 0.101061589671241 
158.095820970913 0.39102967951742906 
159.067623277023 0.05953900832084467 
159.094637074536 0.028524832482672426 
165.069474800634 0.10062312395477045 
166.067085102777 0.1629465481743771 
167.072957097451 1.0 
168.080401858606 0.6594514615767881 
169.085088937045 0.296620471200586 
170.095539863 0.14678670753482717 
171.101058610693 0.028863785757403778 
172.076732076727 0.08020086951387158 
178.070540242508 0.09117080838242994 
179.073789968101 0.1802264893804433 
180.080608466133 0.574380816624707 
181.087454790792 0.4354312018743006 
182.095643465768 0.2863260184140961 
183.098477809676 0.04253613743179625 
184.110695652362 0.3316389736242254 
185.115117135514 0.036529732953150776 
190.069146190583 0.02569457410265807 
191.074342918668 0.12898016827128364 
192.08083868644 0.19697797813868986 
193.087548325118 0.1901931054743067 
194.095773535432 0.4781564041614471 
195.096783847357 0.2774956556026256 
196.105784872578 0.18806909653614523 
197.107372206854 0.032825959122404894 
203.073458895882 0.03668181736109519 
204.080474442141 0.20624802666027717 
205.087403675173 0.1540043363454163 
206.094889949363 0.2584853242084315 
207.099695310386 0.1841579921051771 
208.109028673599 0.15052442646878694 
209.108086026218 0.27157688082760467 
210.121390998713 0.08741947431937774 
211.12241988614 0.24266420260483285 
217.088382918182 0.13229030383209764 
218.095956012735 0.18608304447950436 
219.100901528909 0.0856096869447504 
220.109280723197 0.10838272274277996 
221.108851787784 0.1308214802817307 
222.11918954186 0.08567551780190329 
223.123384100925 0.19011927145883425 
224.126882058303 0.03441363933376635 
231.102427590029 0.03603914422813686 
232.109884022643 0.059799403764705196 
233.112073812607 0.03442101297536442 
234.116720591733 0.04621330076112964 
235.123073830936 0.07960731820508679 
236.131455590587 0.028087318361245978 
237.137880807982 0.10267412847313892 
239.152676676299 0.028277071293012705 
249.137124198298 0.0996246323549147 
250.142775845623 0.025473345334817495 
END IONS

BEGIN IONS
TITLE=Pleiocarpoline.mgf
PEPMASS=413.2087629
CHARGE=1+
RETENTION_TIME=1029.625
PRECURSOR_MZ=413.2087629
SMILES=[H][C@]12[C@@]34CC[C@]5([C@H](C(OC)=O)C4)N(C(OC)=O)C6=CC=CC=C6C51CC[N+]2([O-])CCC3
INCHI=InChI=1S/C23H28N2O5/c1-29-18(26)16-14-21-8-5-12-25(28)13-11-22(19(21)25)15-6-3-4-7-17(15)24(20(27)30-2)23(16,22)10-9-21/h3-4,6-7,16,19H,5,8-14H2,1-2H3/t16?,19-,21+,22?,23+,25?/m0/s1
COMPOUND_NAME=Pleiocarpoline.mgf
IONMODE=positive
SKELETON=Aspidofractane
108.081491082631 0.22339560160486827 
109.089420173006 0.9957487338211697 
109.182771043505 0.032621963826209494 
110.095647620434 0.04382397152884292 
120.08141984791 0.049985116634444875 
122.096908392853 0.1081648700994716 
124.112922315161 1.0 
130.065941008503 0.02582901220348555 
134.096676733568 0.05036613953472108 
136.112605755121 0.06881534966729887 
143.074695098354 0.027489716053359817 
144.081506484309 0.04462242802985765 
146.096560798172 0.03604255025266753 
154.066294900506 0.08354127063291239 
155.073343939429 0.028156329102028203 
156.08178854444 0.02528946069764301 
158.096296319564 0.03610849601951928 
166.066391065275 0.056231059769935074 
167.073687847678 0.04836481860870911 
168.081740291674 0.095193263015077 
169.084426487834 0.03324221770451733 
170.091299950153 0.03499045147957264 
180.081709935547 0.061303817790888934 
181.084490314538 0.03682509619549705 
182.087819933808 0.03177282083269043 
188.071665258272 0.036319188526564294 
193.085784279416 0.028773737438199064 
194.094074326617 0.07976233822262455 
201.078888488933 0.03066836583268824 
202.086674828654 0.038514189901254006 
204.083843968302 0.05510560632995438 
205.088619544583 0.03654430544075525 
206.096040975163 0.08267965271272831 
207.100279975133 0.05101493188401553 
208.108566641018 0.034014955050487614 
213.078865614204 0.08003321110469541 
214.087536904929 0.06847340379729075 
217.088760562267 0.02654500043491773 
218.096841248293 0.03355237305538229 
219.095298406781 0.04576851274308951 
220.107929184685 0.04818691758724253 
221.108057866081 0.06524565858127651 
222.11500402787 0.025534343420656365 
223.121837000405 0.025478595272553545 
226.084383400797 0.060100559972969536 
227.083882341311 0.06642920304276312 
232.110485704219 0.0346031954869964 
234.104465341012 0.034162202021252835 
235.120371875509 0.04254362618230965 
238.087626130696 0.04812358132677445 
239.09390589086 0.04318800815984341 
240.100382195686 0.03360692354058875 
241.077241756023 0.04913315869601611 
247.118993683318 0.03521987823177749 
249.127782289553 0.045925083126109975 
252.10202707196 0.03296867412160825 
253.101314651436 0.028531014005225133 
255.113180715214 0.024910159984159377 
263.124778934773 0.03358911595431222 
265.109191642256 0.055106830219045555 
266.115872934031 0.03635222478996096 
267.116611597267 0.06003040490185065 
275.120545111518 0.05066970773965606 
277.135913891653 0.0679539940090629 
279.114053755542 0.047412195792531565 
280.120850750706 0.042179401159809754 
281.129253338135 0.1677693178872702 
282.136638996627 0.07166801658719402 
293.13053882774 0.036913906833191346 
295.144950931268 0.23007523858187973 
303.148326033149 0.030545531078259403 
305.164574744606 0.05344881018310692 
307.143308635517 0.053925733535741274 
308.153907300339 0.027487661668099638 
309.16046983854 0.2752313259658124 
310.167316272111 0.07648432613322295 
323.17600889875 0.05173619595163715 
335.174276283026 0.08419491482824684 
336.179703488967 0.045761387960165906 
337.191737732683 0.2676219703827582 
353.160997417268 0.06687828291857335 
363.171386973603 0.7068261102750297 
364.176450522667 0.07685931700869268 
367.165544486782 0.03218809077235707 
368.173698681467 0.13355868919729924 
381.181946414963 0.7096310018100446 
382.184536552046 0.03599598564378096 
395.197688792172 0.9758710265675725 
395.365616401802 0.029939421861019527 
396.204774512648 0.4317521414780821 
413.208196944011 0.7631088356487421 
413.383436059442 0.028074901138173142 
414.210709453498 0.04355714185180539 
END IONS

BEGIN IONS
TITLE=venalstonine.mgf
PEPMASS=337.191147
CHARGE=1+
RETENTION_TIME=166.692
PRECURSOR_MZ=337.191147
SMILES=COC([C@@H]1C[C@@]2([C@@]34[H])C=CCN4CC[C@]53C6=CC=CC=C6N[C@]15CC2)=O
INCHI=InChI=1S/C21H24N2O2/c1-25-17(24)15-13-19-7-4-11-23-12-10-20(18(19)23)14-5-2-3-6-16(14)22-21(15,20)9-8-19/h2-7,15,18,22H,8-13H2,1H3/t15-,18-,19+,20+,21+/m0/s1
COMPOUND_NAME=venalstonine.mgf
IONMODE=positive
SKELETON=Aspidofractane
103.054329609573 0.03078511734929163 
105.069975805705 0.23613974686039294 
115.05436116351 0.14559212397424148 
117.070038009766 0.34535340296609646 
117.077162197306 0.028003725697403312 
118.077509749298 0.025206394316543947 
119.085732739634 0.12941372755596714 
120.081018966256 0.036048725437632864 
127.05449737489 0.048678523625452795 
129.069964103892 0.025649268116846355 
130.065345821097 0.10625950371525303 
132.08102254777 0.08661641224338296 
134.096527758571 0.0266596412596885 
142.065344851672 0.08606093197067219 
143.073212488252 0.09009042689657869 
144.081134738056 0.600343432601352 
144.096942672092 0.031893099907714544 
144.109127813836 0.025460294488635175 
145.065062502132 0.056946020771994926 
156.080965892023 0.05081325289911855 
158.084026383704 0.03617717522936124 
159.091742052507 0.09664515838766642 
167.072796055167 0.031501644587963895 
168.080926279846 0.03912369518910485 
169.07624905513 0.05675127327690512 
180.080895114963 0.03851799084429681 
183.091705274862 0.034849523281056095 
194.096834200482 0.035666975356086365 
196.075675379391 0.03029750947090919 
204.080854570248 0.06676893231131963 
205.088615909642 0.046941741254707334 
206.096502055147 0.0536513816306407 
217.088917273504 0.06280735262847523 
218.096636193523 0.09022331153225464 
219.104382505434 0.052260383185514125 
220.112237992166 0.19875470867413697 
221.083747513877 0.03542273221737377 
230.096618674921 0.08584695610629271 
231.1044778362 0.08879087836155011 
232.112153582205 0.053457464329768146 
233.083533960593 0.02998836656877516 
234.09153538314 0.06433276755151086 
234.127904452204 0.033891425593441576 
244.112221089698 0.08972567705016461 
245.120043012718 0.08040597032832307 
246.091419266238 0.0447170082157091 
246.128001423519 0.11169309808664336 
249.138718290557 0.09080498309349647 
258.091424617976 0.03696816821127425 
258.127886525515 0.04509483763811352 
260.107311654829 0.06108344094614289 
260.144000629249 1.0 
260.181083978617 0.047884761544118394 
262.122588623756 0.046231748447938516 
272.106965734843 0.03334226015287357 
273.114665982467 0.026836199467283117 
276.138598826024 0.10479027419440363 
286.122850073545 0.03720279180925029 
288.13856432583 0.05336416656802531 
318.149129875605 0.040282533838448494 
320.164848792096 0.1839080509021533 
END IONS

BEGIN IONS
TITLE=prunifolineA.mgf
PEPMASS=455.1845703
CHARGE=1+
RETENTION_TIME=278.094
PRECURSOR_MZ=455.1845703
SMILES=COC(N1C2=C([C@]34[C@@H]5CN6[C@@]3([H])[C@](CC[C@]14C(OC)=O)(CC5=O)CCC6=O)C=CC=C2OC)=O
INCHI=InChI=1S/C24H26N2O7/c1-31-16-6-4-5-13-18(16)26(21(30)33-3)23(20(29)32-2)10-9-22-8-7-17(28)25-12-14(15(27)11-22)24(13,23)19(22)25/h4-6,14,19H,7-12H2,1-3H3/t14-,19+,22-,23-,24+/m1/s1
COMPOUND_NAME=prunifolineA.mgf
IONMODE=positive
SKELETON=Chanofruticosinate
108.044141714806 0.08749269176080898 
110.061335906409 0.03795341863775125 
120.043192769212 0.03688615188051284 
122.05925755455 0.03506054493608501 
130.064923293014 0.045665255557955475 
131.072167842303 0.026845426255909032 
134.060624650782 0.0824217763365723 
136.03918764394 0.25667591380252874 
136.046214621864 0.05456983932778975 
144.07995711362 0.06173627581277118 
146.059830126714 0.033032509440028814 
148.038439528792 0.04629965645119644 
148.075958647622 0.03632224779275347 
149.069994059508 0.026290380000295495 
150.054337258034 0.028312941792293336 
155.072626488473 0.03866405035807734 
156.081925493928 0.025415041147761164 
159.068467453295 0.03134605981252916 
160.074973249526 0.054928268445081085 
161.083881882896 0.03254989478246248 
164.07027628006 0.03322167938587573 
168.080011423962 0.0832721000801356 
169.089134970148 0.025324338072285256 
170.096856697668 0.03697761480179633 
172.075068817683 0.04848115265794767 
174.090999454894 0.10490030189799633 
176.034321222268 0.39670423916568937 
176.072006900054 0.0261534107578688 
180.080707299595 0.061110071404399086 
183.069002115298 0.024887743335343174 
183.091650361915 0.034787376850453196 
184.076211243794 0.1264297237608709 
184.086437953267 0.03238574698119592 
185.084028648623 0.08692354614409913 
186.089063740378 0.057656994345480786 
188.107278242067 0.07708864375262517 
192.0803450245 0.027342646838443414 
194.095784925879 0.05189929791654501 
196.075644571048 0.04875951654106932 
196.11112964847 0.024648606492038153 
197.084343313949 0.05213400584377711 
198.091008686032 0.08631591574435692 
199.098826852012 0.12053863217904782 
199.106989686875 0.03580734672397405 
200.070886929035 0.05814614508411423 
200.1068317272 0.5493185660583914 
200.128394270633 0.02806064835954215 
200.137698564498 0.03353180200951074 
207.103660813246 0.026034888883104054 
208.076259700285 0.06840874216672846 
209.083368037285 0.12005764274723658 
209.092902267385 0.039358464998898925 
210.090910544564 0.10953011979532006 
211.086928774055 0.07804344629473153 
211.097407492922 0.16426019512558915 
211.10280113945 0.03269351971131488 
212.106526967506 0.07254705239629336 
214.086905116217 0.05059099118367795 
214.123077312168 0.04517040597576514 
215.082433235823 0.04309321267732374 
215.11877179356 0.033037867056533235 
218.094835730339 0.026104836911057937 
219.104211828345 0.03675620417619699 
220.074788197204 0.062019388732190234 
221.083510693821 0.04908691862121757 
221.120747493803 0.030956779548327953 
222.090974545762 0.03746746910136273 
223.097941515185 0.08588614554846444 
224.069018229253 0.025771718398329462 
224.1066214678 0.6996498377236708 
224.116258861992 0.11894281527093077 
224.136638029435 0.030638632812252653 
226.08511155786 0.03314911411125127 
226.123021182207 0.31094234247798386 
232.111609539276 0.0415942057535806 
233.083118743294 0.04629539990755209 
233.107191655232 0.028276346070365943 
233.120630636519 0.035317773848780834 
234.091503403027 0.06842485371209302 
235.084546840962 0.04326220801341832 
235.099572450962 0.0540686928752495 
235.125603412002 0.028494984665889466 
236.069490830455 0.02908659850099308 
236.092708333669 0.024672770292280318 
236.106539011571 0.10071671752239611 
237.101691996144 0.038890737690673804 
237.113620821375 0.06844574947180163 
238.122448554101 0.07804939138461495 
239.094749184046 0.0323780253999568 
239.117858306558 0.041728585891774035 
239.131503436682 0.17008078990193062 
239.142004016306 0.029391170028867104 
240.102186427668 0.05151058050109016 
240.138206763742 0.14458782234523593 
240.150446126577 0.03110561786369351 
246.090634034369 0.05246063400689912 
247.09888178466 0.07806863377613113 
248.105873806159 0.17079230107342294 
248.117218975158 0.03674216813558463 
249.114511360122 0.057694775567580195 
250.073012225686 0.03114648771828857 
250.086674188211 0.05085774631140592 
250.097836954167 0.0322104301501188 
250.10955162517 0.06981888934464003 
250.121260432409 0.1434609639769767 
250.13380871833 0.02821033446583192 
251.093770289788 0.07781651271580853 
251.117735230306 0.055909524878266365 
251.13001123652 0.034244551448245 
252.085445044064 0.026190548221714564 
252.102711048536 0.07524950029584737 
252.125844725598 0.05498750827563547 
252.137881111972 0.054960632247996785 
253.095260062507 0.04134384359559036 
253.109379684544 0.06532176303927066 
253.1320362846 0.044502797006488945 
254.115456348251 0.028750081788958458 
254.141844106837 0.025199026834517545 
261.103459386339 0.04333235303843342 
261.115537521415 0.03904766695676829 
262.073462953915 0.02561485245271895 
262.08615671541 0.04654889291169396 
262.110149782227 0.026137453995909495 
262.12363091378 0.22788897949190234 
262.134715256595 0.028948559845948296 
263.093212733393 0.06600755905866361 
263.12958290209 0.05048056729525145 
264.102517041114 0.10741152193597454 
264.138138121705 0.07662038877370034 
264.150908216561 0.02861917020616446 
265.097465926085 0.09530911301369623 
265.110862582742 0.08949530760035769 
265.133895518589 0.0925105938687479 
265.1450019061 0.09652616789355967 
266.10254479003 0.04616485417644323 
266.117612991789 0.24948604873848007 
266.128641654159 0.046982849295137484 
266.141289841348 0.042614967133151015 
267.125334940112 0.08490249700810713 
268.098998724515 0.03058875385991117 
268.132652657804 0.04828528129421441 
274.085821870224 0.03713802669450891 
274.108817797601 0.027087905013645566 
274.121772782481 0.03377560697960588 
275.092276661889 0.02990868834431709 
275.097529828873 0.02618397696260081 
275.117723952345 0.030061252014822622 
276.089337289214 0.0262284666381959 
276.099520712886 0.04668566515705942 
276.104168271752 0.03615409672977843 
277.096887420269 0.2475771472152003 
277.107549568114 0.03668254134651713 
278.118292307875 0.08367151162177126 
278.153622000861 0.024680175271099617 
279.112346223756 0.12038212504951311 
279.124199632943 0.03316281596042048 
279.148729780211 0.060877438981919184 
280.133346555506 0.09741884600528655 
280.145457400073 0.027699383891691017 
281.127861597799 0.06411666869526736 
281.140164999461 0.0371480876158501 
282.147190709018 0.026461422698704957 
287.081976891193 0.02566660991275141 
288.090498753307 0.043242262060969185 
288.100286240161 0.0327654095674437 
289.132312669748 0.05290637503596955 
290.117577515941 0.08991455956030256 
290.124670073629 0.025124614712444093 
291.113257224562 0.22261287052157083 
291.126247504942 0.04134321039075071 
291.148977298466 0.041405827313783256 
292.10079398197 0.0284246954108831 
292.128518984067 0.04100212405045658 
292.133990358606 0.02559777351107159 
293.128086882457 0.1657690519023936 
293.139225433334 0.054263227473210156 
294.111642487482 0.026265516156925045 
295.142753766353 0.02663197994007068 
302.104415984309 0.027125566630386375 
303.111658503028 0.06187090219729115 
304.122867027495 0.03074579921355959 
306.100625779119 0.03803119729888887 
306.111673669506 0.05185683801424148 
306.130540454578 0.04066086181992921 
306.137497728618 0.0786045361387591 
306.14612641718 0.047371496354499026 
307.143940965001 0.8677291374835454 
307.158714668251 0.14571675621824742 
307.173667983834 0.04564091234967541 
307.183105480195 0.06343076714173446 
308.126675287085 0.03101754610610684 
309.162187685336 0.030871085826694646 
317.128444811128 0.09532782773451269 
317.136647222992 0.03409373612665786 
319.108612257972 0.048226956092872864 
319.144476431293 0.046690941864056555 
321.123083442904 0.056426536629844634 
322.143451191966 0.04682616627536953 
323.138394458638 0.034513747932410306 
324.158689474659 0.028682378120380683 
335.139155996752 1.0 
335.162860554444 0.051792567723016505 
335.178054333644 0.0475475272999231 
345.12607840217 0.026453947363792363 
347.137090379072 0.04806249872479581 
351.169745075606 0.08680710680969592 
351.18236973186 0.03437727821824601 
363.135089504816 0.06606778387452412 
381.144854605087 0.024629568133192527 
395.158293388279 0.026632774963924914 
END IONS

BEGIN IONS
TITLE=prunifolineB.mgf
PEPMASS=469.1967861
CHARGE=1+
RETENTION_TIME=211.608
PRECURSOR_MZ=469.1967861
SMILES=COC(N1C2=C([C@]34[C@@H]5CN6[C@@]3([H])[C@](CC[C@]14C(OC)=O)(CC5=O)C=CC6)C=CC(OC)=C2OC)=O
INCHI=InChI=1S/C25H28N2O7/c1-31-17-7-6-14-18(19(17)32-2)27(22(30)34-4)24(21(29)33-3)10-9-23-8-5-11-26-13-15(16(28)12-23)25(14,24)20(23)26/h5-8,15,20H,9-13H2,1-4H3/t15-,20+,23-,24-,25+/m1/s1
COMPOUND_NAME=prunifolineB.mgf
IONMODE=positive
SKELETON=Chanofruticosinate
105.069958789073 0.515181248965124 
106.06487127219 0.17695881959733356 
118.064836735914 0.163608225041855 
128.062144804423 0.1245680013246414 
131.085780122716 0.1662958979044909 
133.064474461452 0.3826400838939551 
143.085225511266 0.14759524846225078 
156.080883662406 0.6323730092050311 
163.049984431555 0.14416997111545846 
170.096289055046 0.12671068237429706 
182.06019465227 0.15319450764428472 
184.075865231104 0.22700048447532548 
192.065579813998 0.500800058872951 
198.091735843876 0.19018013896469463 
206.044523168612 0.36441375419316463 
207.076438524914 0.22200805823516065 
212.05843133227 0.16844458890122224 
213.06634290148 0.21314946983681154 
214.086068894396 0.23641976414024027 
216.10178109556 0.1491811385783409 
218.081494109225 0.1633421438339783 
226.074064715116 0.17315945370807603 
226.085708067209 0.16954813783629638 
227.080763047543 0.18075350018091166 
229.10924829396 0.24907869964369597 
230.117654384972 0.12741244794956552 
234.091069967927 0.17801056033557583 
235.08650778639 0.2194341573502266 
235.098550914456 0.1328154884921779 
236.106812571013 0.25879813323684714 
241.0968384475 0.12580715429005965 
242.104773250771 0.1835528354071739 
246.07785433443 0.14981515119922975 
248.093297431421 0.12482422131323476 
249.11411216521 0.2852514672243243 
262.122142050429 0.12413123761981565 
263.081313716579 0.38710142705580053 
263.093113471293 0.13271905950460863 
263.117580564202 0.12529169707413698 
264.088961449256 0.3284899701342426 
264.10133065569 0.2780856478784274 
265.096515392975 0.1547092841417121 
266.117028598537 0.15512804253570706 
269.092696448183 0.13532583112048716 
277.096222221229 0.17301472437033538 
278.117359791921 0.2475377001527017 
279.11282897917 0.5327432955360811 
279.123749852379 0.14744934166549126 
280.132378979892 0.1438188184934657 
289.109376199844 0.14617878979290214 
289.133464522835 0.16043325585816523 
290.116483065259 0.1496349018477521 
291.113116129337 0.20517274918283118 
292.096364592563 0.13219420714693095 
292.132465008642 0.1379617203166874 
293.092359035413 0.12522806522632357 
293.128316803703 0.1426125117285957 
303.112555548851 0.20478828428276188 
305.128092040678 0.17923629517425782 
306.111886231871 0.1945361976659328 
307.107598593658 0.2315841852535523 
307.144140912895 0.47813151971937223 
307.155305659531 0.13038364313179568 
317.128775181589 0.15533326383054402 
319.107537443814 0.3540091866333871 
320.128446723068 0.2020691143913702 
321.13382125283 0.1296272483641292 
321.159937392775 0.4337682981424357 
333.123888329125 0.2387836357726768 
334.131135204498 0.16342373193183005 
335.139148772048 0.405112379877716 
347.101288202852 0.13129634558422207 
347.138534902326 0.1740792945058045 
349.154876355028 1.0 
349.167345766338 0.2616657365558097 
361.117812821087 0.21952303097575784 
377.149142193804 0.2988319851836407 
395.160427030522 0.1473041462502223 
409.175917191721 0.19659733967852916 
END IONS

BEGIN IONS
TITLE=prunifolineC.mgf
PEPMASS=381.1833456
CHARGE=1+
RETENTION_TIME=177.2
PRECURSOR_MZ=381.1833456
SMILES=COC1=C2N[C@@]3(C(OC)=O)CC[C@](CC4=O)(C56)C=CCN6C[C@@H]4C35C2=CC=C1
INCHI=InChI=1S/C22H24N2O4/c1-27-16-6-3-5-13-17(16)23-21(19(26)28-2)9-8-20-7-4-10-24-12-14(15(25)11-20)22(13,21)18(20)24/h3-7,14,18,23H,8-12H2,1-2H3/t14-,18?,20+,21+,22?/m0/s1
COMPOUND_NAME=prunifolineC.mgf
IONMODE=positive
SKELETON=Chanofruticosinate
103.053738239684 0.04110844127800306 
104.049617335274 0.08996223265035204 
105.033301476098 0.08750902155608438 
105.069928612224 0.10816903714997088 
106.065204883126 0.05651199830728073 
107.04959576387 0.03688693997513094 
108.080679466019 0.0417976736703893 
115.054255892368 0.03904459184886104 
117.056690226627 0.0381914787236201 
120.080951355886 0.07602034161625706 
124.07557266951 0.05422412443805488 
129.069920432562 0.036618235282182686 
130.065095632785 0.038715243458828374 
131.060206691177 0.15365369398302064 
132.068379890064 0.053126566997191364 
132.080451248179 0.05086263467118059 
133.064718618046 0.0540491714660862 
136.075443111348 0.10874272116217933 
148.063479431969 0.04364814337100407 
148.075078425731 0.06489968319483373 
154.065366205385 0.061609199233638744 
158.060388814159 0.04273371264930857 
159.067644154294 0.054718650636074055 
160.075833284609 0.1893468828168704 
163.086323089868 0.04868194703295876 
169.076142206763 0.07031629068395714 
170.059481070694 0.04208791415826346 
171.06777384423 0.045623726475115006 
172.075041636637 0.038270933633230635 
173.071013914496 0.13228717098493656 
173.082696901041 0.07494398664374927 
174.091049152686 0.13129979971420871 
181.076485130966 0.04635426962351489 
182.059352354595 0.07715756491897266 
182.083407003273 0.05034631906019298 
183.067702952737 0.05883008170848708 
183.091544152894 0.03985791592634352 
184.063254514982 0.12987403154138902 
184.075340215475 0.11670364659267785 
186.054905179897 0.04117251244177655 
186.078782624351 0.03766331552693134 
186.091319903562 0.1313135675508033 
188.094533567956 0.07929418823386193 
192.080920662629 0.042145108649969426 
193.08864497088 0.040791331770080035 
195.067330427448 0.03864012904086004 
196.074636006993 0.05062707423327643 
197.070925344067 0.8375757593324195 
197.081781880773 0.25542575947734397 
197.091904793645 0.06598966107934043 
197.103370516418 0.0496485361166585 
198.078749443193 0.4813158863443351 
198.090114180646 0.19024838626462653 
198.100004701816 0.05025237893723896 
199.086678642602 0.22900673029822585 
199.096517453648 0.047590157591005405 
200.058328681912 0.045918952369082375 
200.0696637613 0.05052861246293554 
200.106712436318 0.046685342616236775 
201.102130585089 0.08413597405270039 
204.080603568094 0.122514977956969 
205.089037117365 0.10556220598422641 
206.096323937295 0.03966360827461472 
208.075468848569 0.03754599906668561 
210.078282970604 0.07451370551901847 
210.090686073819 0.14375505424527618 
211.086448195401 0.07858159399664355 
211.099133299583 0.06686361436144775 
212.094436488136 1.0 
212.104503381045 0.229080424455156 
212.127636793186 0.05547726567866739 
213.10234349068 0.2518508320121041 
213.111806426548 0.05680773143733316 
215.081645833559 0.038727677989142256 
218.096700620319 0.05150001304321362 
219.09224168865 0.04008688954137163 
219.104272330704 0.03862381777761031 
220.075513095585 0.08003286889831222 
221.083586887779 0.16543352743567524 
222.078331982246 0.036583902645453574 
222.090849346014 0.05284263797546137 
223.086436731676 0.06663901746921078 
223.098986405883 0.07255831041109312 
224.106349059933 0.04623151124469939 
225.102045176535 0.10976139614558546 
229.073304581836 0.03657467819493518 
234.090897632562 0.11247655844664022 
235.086562097904 0.09542306387986331 
235.098865196493 0.14011136005936112 
236.093783418746 0.10241596547316432 
236.106745796134 0.23710018927152207 
236.118445685221 0.04524818337019249 
237.10163841899 0.11303169211059487 
237.114050754781 0.05808200268400352 
238.110240270076 0.0425422600121157 
238.122508009558 0.08087328662896695 
239.118218454136 0.03637142144941987 
243.076579829816 0.07341495969646993 
246.09131429134 0.042568947876419905 
247.098779186483 0.05207779117525152 
248.093807320739 0.04391958713881168 
248.106336957314 0.0897447732944549 
249.102033606371 0.23621375798172212 
249.113573796721 0.11680045622262739 
250.085955459648 0.03906046833832357 
250.109579065778 0.12240584973638216 
250.122137398437 0.1315168967586165 
251.117653385285 0.20662464819554388 
251.129069519293 0.055971806369146136 
252.125479588052 0.07455616842556817 
252.136916421314 0.03637187796189643 
253.133338520309 0.0698752344155336 
257.09185424862 0.11874461967438343 
260.107445069652 0.06381432840493093 
261.1027455343 0.05822127522050277 
261.114510827117 0.06527453066169672 
262.086410715734 0.03631046616445464 
262.109572549551 0.050035463048575826 
262.122154128147 0.0513461248612347 
263.117966773912 0.3827570889866003 
263.129376170527 0.0882590788012997 
264.125464984837 0.055694601848658154 
264.137931909551 0.07702894434025977 
265.097013597888 0.04037976041065834 
265.133241159017 0.06593899544067222 
273.102384156989 0.07961939902668642 
276.101151263751 0.05217828188993267 
276.138076317413 0.04117388197920622 
277.097059434895 0.12603983397438312 
277.10871838994 0.07808943006953482 
277.133697952155 0.23158863443350428 
277.143917650565 0.06162775682812233 
278.11733418704 0.046944699672760264 
278.141580861375 0.11362617280229098 
279.112048862157 0.037749676093528535 
279.149456393202 0.16670067563846533 
287.118205725134 0.06448778575507165 
288.126065620173 0.044562233519899595 
289.134065938679 0.04470937546194716 
292.133342894084 0.0655587422863884 
293.164864017611 0.5212716698501769 
293.176377486687 0.12051719240479179 
303.148704615226 0.03761670053071387 
307.142980499492 0.07218241948714085 
319.144577681986 0.041505628871298265 
321.15971268921 0.3185585364934625 
321.171948384327 0.06969444098235689 
END IONS

BEGIN IONS
TITLE=prunifolineD.mgf
PEPMASS=369.1812157
CHARGE=1+
RETENTION_TIME=109.325
PRECURSOR_MZ=369.1812157
SMILES=O=C(OC)[C@]12CC[C@](CC3=O)(C45)[C@@H](O)CCN5C[C@@H]3C14C6=CC=CC=C6N2
INCHI=InChI=1S/C21H24N2O4/c1-27-18(26)20-8-7-19-10-15(24)13-11-23(9-6-16(19)25)17(19)21(13,20)12-4-2-3-5-14(12)22-20/h2-5,13,16-17,22,25H,6-11H2,1H3/t13-,16-,17?,19+,20+,21?/m0/s1
COMPOUND_NAME=prunifolineD.mgf
IONMODE=positive
SKELETON=Chanofruticosinate
106.065122684898 0.09688458282858489 
108.08101891174 0.03818805388070389 
110.061464666626 0.030461775126334942 
112.075893808598 0.05621638882271545 
117.056850736627 0.03690059237493764 
118.065349704214 0.0318993940122414 
120.080932581759 0.05542496258284452 
122.060387175443 0.09817859731465384 
124.076413294829 0.05368925550178813 
128.049545995977 0.04207082142513202 
129.06985660135 0.08889414655939572 
130.065517445045 0.20164128623780003 
130.074292554898 0.05221338676124198 
132.081528435072 0.06071875694670219 
134.096068166421 0.028992441263935943 
136.075639465022 0.05701226819284733 
138.091424897345 0.04924792784625622 
142.065387279532 0.031477146752726726 
143.073331470336 0.03286425700426704 
144.081610842752 0.1551080300437855 
144.090670442111 0.03639308034243486 
148.075744029647 0.04839976945094714 
150.091903362415 0.10272303484809757 
152.072034890374 0.054127870730335086 
154.065671821955 0.07770205444983568 
154.086395738724 0.029389895811233618 
156.044551640822 0.06913977108738201 
156.081129948885 0.3229160979572804 
156.088630658307 0.04620252981243995 
156.092109926021 0.03840390398327072 
158.09602003516 0.06315925335125205 
166.087501881977 0.03019246935848133 
167.072926614587 0.16907967193101486 
167.080264682288 0.03621538958373007 
167.085964232042 0.031152213060922442 
168.081021976298 0.5041544446946564 
168.088511199717 0.08729007835337001 
170.06133026952 0.05188910474703686 
170.097008934718 0.09011749023026666 
180.080674337117 0.13418233649590058 
180.101495724666 0.03187638617255988 
181.087266223079 0.031349551899241955 
181.091377701466 0.031674445766304064 
182.096859170023 1.0 
182.105719654562 0.20352383800453422 
182.118465734514 0.045229719974135635 
182.12847130609 0.04734731012830083 
188.070275719045 0.03576701005248901 
191.073542599659 0.041024408222433494 
192.079844009296 0.07302565220256167 
194.09672802451 0.1928801687989799 
194.106204736658 0.03966377780400579 
195.091972512445 0.15124195268675814 
195.104089387069 0.05123051212446173 
196.11264168147 0.048492778326071954 
204.080606712275 0.07169289910365366 
205.089252585749 0.03925506733639815 
206.097892058638 0.101697909780305 
207.091678855785 0.04125901215813174 
208.076168853209 0.03890587675618062 
208.112724948501 0.16764855171894447 
208.123254117158 0.03509402621626573 
209.107490109198 0.042438005547948625 
210.091782496355 0.328480229911857 
210.099687626058 0.0739372767551669 
210.127536004535 0.03806691425588193 
217.087644091321 0.06268848869447978 
218.097149204375 0.05576448661200781 
219.104622204025 0.029292198477825947 
220.112180954848 0.11368045061333723 
221.107792907404 0.10419731059895689 
221.119771051862 0.04799808261968602 
222.091678853835 0.2321586603246368 
222.102666236509 0.0556828096862462 
222.113874362613 0.0351199267804013 
223.123552739396 0.156636250218131 
223.133235320241 0.04022512564706155 
224.107379486791 0.07315696523879278 
232.112770411001 0.06618459419673857 
233.083539873797 0.051523223979418574 
233.107803017669 0.04197687123791952 
233.115359948827 0.029993707690736983 
234.091236963725 0.0795599510807349 
234.131553016791 0.038703060205597044 
235.097477556928 0.030529524253630026 
235.122951858426 0.036788069376149035 
236.106629325107 0.10092864057880556 
237.139135540197 0.13570259172181187 
238.123345108464 0.04501169761290495 
239.118296512989 0.044284932272595286 
244.111912579484 0.030184305286336276 
247.100407138505 0.032537556542082804 
247.123022603219 0.0905408996481665 
248.107886715576 0.1096032659184925 
248.116324720879 0.03480522804733496 
249.114455741856 0.03315553516850572 
249.135482410254 0.02965151178341712 
250.122005435721 0.03940730646442456 
251.117664993592 0.06779927026590618 
260.106437561375 0.03688679853242205 
262.123380013242 0.06133814030039441 
263.155011590787 0.1285027851976502 
265.133074418935 0.15883504664201392 
265.142240867371 0.04189168249398465 
281.166238223539 0.07431488771957008 
291.150985891766 0.10478639094428807 
309.160495159529 0.25208833707082506 
309.169174909754 0.07221746336666784 
309.17548358883 0.04569027501518771 
369.183359786075 0.0743592017963131 
END IONS

BEGIN IONS
TITLE=prunifolineE.mgf
PEPMASS=413.1728734
CHARGE=1+
RETENTION_TIME=130.08
PRECURSOR_MZ=413.1728734
SMILES=O=C(OC)[C@]12CC[C@](CC3=O)([C@@]45[H])[C@@H](O)CCN5C[C@@H]3C14C6=CC=C(OCO7)C7=C6N2
INCHI=InChI=1S/C22H24N2O6/c1-28-19(27)21-6-5-20-8-13(25)12-9-24(7-4-15(20)26)18(20)22(12,21)11-2-3-14-17(16(11)23-21)30-10-29-14/h2-3,12,15,18,23,26H,4-10H2,1H3/t12-,15-,18-,20+,21+,22?/m0/s1
COMPOUND_NAME=prunifolineE.mgf
IONMODE=positive
SKELETON=Chanofruticosinate
100.075672799238 0.025559227426700453 
106.064904109802 0.034154179402109075 
108.081138299219 0.03499762271741686 
110.060312194851 0.02850717103372606 
120.081005663324 0.05118768341214069 
122.06005757417 0.07414504906955074 
124.075729894381 0.06080627323946115 
126.054882362149 0.048915245086513924 
132.081025753794 0.04028560481377953 
136.075845139843 0.051135261283384276 
138.091472841855 0.03422732655851337 
142.065129723161 0.054693347962764614 
148.075604508864 0.025383064691693442 
150.054997859123 0.02706009387218405 
150.0915327741 0.0423408483328544 
152.071176872657 0.03555720281790712 
154.065212108397 0.04636576190600591 
168.08091043672 0.05942200684448392 
170.060586947469 0.046671456063812185 
170.096783793948 0.025343704555152086 
172.0759663799 0.025396196347866974 
174.055086990929 0.13559919712287852 
174.063647077833 0.02663011921244895 
182.060297397132 0.3474343199491453 
182.06915120867 0.06345763995924658 
183.067473613363 0.025558844274928813 
184.075632501985 0.04555948866654475 
188.070666407677 0.12989946619991813 
188.080088073786 0.027628164267614094 
196.075941779467 0.361121938051325 
196.084504183494 0.0729935038358717 
198.055477509895 0.03019633915898186 
198.09148612365 0.047442810244085094 
200.03425928212 0.027026002072502765 
200.070866583239 0.2860862352726038 
200.079620221349 0.06083945069968738 
202.087300195293 0.04258578245687365 
208.076258392104 0.03286711164520146 
210.091833790626 0.03569197645358203 
212.070637490418 0.10762328343652307 
214.050099083572 0.035843600059214366 
214.086130696387 0.05601239147661468 
220.07602964703 0.042908243858686655 
222.091984522025 0.08590415110112595 
224.070895369099 0.3173882111166262 
224.080516499288 0.059295000740179564 
224.105668147738 0.03667705095047763 
226.08659436479 1.0 
226.095773682425 0.16413264017694645 
226.115627644788 0.0565629109085051 
232.060861690687 0.03729641143533878 
232.075392649963 0.02846452798314132 
234.091599700966 0.05185162447643181 
235.086384801813 0.02561023886029764 
238.086686767154 0.10902588016057542 
239.081996383595 0.16212518613338908 
239.09317054746 0.059267918876320345 
240.065758846266 0.041059445126570705 
240.101904674069 0.04134793228663236 
248.107495426728 0.034552822696517674 
250.086703301814 0.1326598570147252 
250.097337816715 0.02562828182554403 
251.117833291934 0.04573134094412079 
252.101636965551 0.08379363793899179 
254.08132583364 0.35971507440981565 
254.091795748053 0.0739809033673816 
254.113347642377 0.029899627297822133 
262.086764087566 0.027222245443541716 
264.102369782513 0.06922172296385312 
265.097191628138 0.06887627680973903 
266.081559262587 0.10415976558077972 
266.105157936 0.03138552905422468 
267.112830507244 0.07667798705991971 
268.096886789019 0.06489837770056689 
276.101924338327 0.029943084545921612 
277.132911052739 0.03166578280519345 
278.08144256622 0.029775594973745396 
278.117860550604 0.025633014620723288 
279.112910294713 0.04765672213659361 
280.09780200594 0.05874391528862649 
280.120470852605 0.031299206701672806 
281.128489075524 0.05994496547280057 
282.112553215913 0.03767552269738847 
283.107885854428 0.030380878984996126 
291.112541540175 0.0325721065510245 
292.097384405859 0.05581741947281799 
293.128872020388 0.04920156395586788 
295.107561367724 0.02461356096031767 
306.112276992819 0.03968696500256886 
307.144400342466 0.0768871095552827 
309.123561811448 0.19449458798122557 
309.134734037438 0.052271045046457146 
310.107074845364 0.02633531875615002 
325.154733445742 0.060348493952297605 
335.139497099514 0.10294173480672605 
353.150128470819 0.35090571854019176 
353.161850051011 0.08451409388960003 
413.171679637737 0.047507989585238206 
END IONS

BEGIN IONS
TITLE=prunifolineF.mgf
PEPMASS=399.1943625
CHARGE=1+
RETENTION_TIME=141.927
PRECURSOR_MZ=399.1943625
SMILES=O=C(OC)[C@]12CC[C@](CC3=O)([C@@]45[H])[C@@H](O)CCN5C[C@@H]3C14C6=CC=CC(OC)=C6N2
INCHI=InChI=1S/C22H26N2O5/c1-28-15-5-3-4-12-17(15)23-21(19(27)29-2)8-7-20-10-14(25)13-11-24(9-6-16(20)26)18(20)22(12,13)21/h3-5,13,16,18,23,26H,6-11H2,1-2H3/t13-,16-,18-,20+,21+,22?/m0/s1
COMPOUND_NAME=prunifolineF.mgf
IONMODE=positive
SKELETON=Chanofruticosinate
100.07578265939 0.025669431223578513 
106.065112317915 0.06379481336200148 
108.080871838373 0.047582413997014905 
120.080646683708 0.05654384115938023 
122.060123626297 0.06125280974907394 
124.075556066016 0.07492542569279151 
126.055051326762 0.049093437827779925 
132.081000632731 0.047694601246821025 
136.075847038751 0.05912499736955553 
138.091728890642 0.04448960979262831 
148.075671211937 0.03342394289435382 
150.091393066494 0.06219892029183744 
152.070621135183 0.030318628392621783 
154.06551691307 0.04614013888360655 
155.072849478888 0.03709158367815484 
160.07565393256 0.15885789866002745 
160.08382004335 0.02621212328898034 
166.065232727154 0.039444735858006584 
167.073114589276 0.040674722036830854 
171.067924495197 0.045386547916659026 
174.091276738631 0.1405786746150815 
180.0808923523 0.03807972341431498 
182.060140170696 0.03331024977542279 
183.067725881105 0.0674689602726627 
184.075946614274 0.02515936632254983 
186.055233059094 0.03939898060382649 
186.091480592253 0.2913300743493922 
186.100470488019 0.04642474814821536 
188.07085527453 0.029782577596181116 
188.106840346639 0.07768995042794677 
196.075906569698 0.04885719012929817 
197.08364301695 0.28682849096661933 
197.092877791871 0.05193107443955123 
198.091507171833 0.3089850384180034 
198.100107148693 0.05763853078913527 
200.070713154127 0.0575969263280559 
200.106894812415 0.0859758987577159 
209.083470663943 0.031721982580955425 
210.091507809852 0.07787024929663362 
211.099230102467 0.03745631290261486 
212.107168259664 1.0 
212.116212370627 0.11961840504134094 
212.140853161416 0.058904928111159396 
222.091505746827 0.05742720715527229 
223.099555420582 0.04015969549009573 
224.107052957433 0.07640415056142855 
225.078557834196 0.03334243290146423 
225.102324095307 0.09020073042374964 
225.114294106755 0.043478631041406965 
226.086068261164 0.028313988385115604 
226.122983405701 0.05371365666917581 
234.091774772966 0.032275486014433565 
235.099155751335 0.04423370857146498 
236.106926829497 0.05718968525983868 
237.078641431549 0.030794946380440846 
238.086048198444 0.03610234349917264 
238.122819932228 0.11163652643871798 
238.132820146198 0.025791638294869638 
240.102080855232 0.36413131719337655 
240.112361718231 0.05888898134324684 
240.135879879217 0.0367101547512198 
248.107668578356 0.035131270279761526 
249.115044569293 0.02520755413454709 
250.122918533979 0.06769960922696208 
251.117990747945 0.051610459458045425 
252.102313003922 0.1382241324021914 
252.112101293274 0.03047556698385805 
252.125873860278 0.0340787642915185 
253.1339398639 0.08884154839641349 
254.117771564675 0.0685778398230179 
263.09397280653 0.04336013072488486 
263.117651769875 0.02572292818954182 
264.101936400623 0.04265654233529026 
264.138212253764 0.03286487932872216 
265.133227039483 0.03502556985080119 
266.117585394595 0.06778415026411592 
267.149258201049 0.07030045757184782 
268.133270157933 0.040625047661723104 
277.133649871813 0.03741478566559319 
278.117761234997 0.04894358454383653 
278.141656886489 0.03093686489245681 
279.149679310216 0.0383906853886098 
281.128307582536 0.028169482867167094 
292.133869972612 0.033972851496399524 
293.165043409941 0.07199838292823202 
295.144415231379 0.1493491266827846 
295.155010827583 0.03302492618828036 
311.175831206421 0.05544507796058214 
321.159870697923 0.056894283933167984 
325.154877859799 0.07427587483756402 
339.170563569576 0.25212187578008366 
339.182700785691 0.04892628635491443 
399.191711216874 0.03555926531348238 
END IONS

BEGIN IONS
TITLE=Andrangine.mgf
PEPMASS=297.1968453
CHARGE=1+
RETENTION_TIME=123.895
PRECURSOR_MZ=297.1968453
SMILES=CC[C@]12CC[C@]34[C@H]1N(C[C@@H]5[C@H]2O5)CC[C@H]3C6=CC=CC=C6N4
INCHI=InChI=1S/C19H24N2O/c1-2-18-8-9-19-13(12-5-3-4-6-14(12)20-19)7-10-21(17(18)19)11-15-16(18)22-15/h3-6,13,15-17,20H,2,7-11H2,1H3/t13-,15+,16+,17-,18+,19+/m0/s1
COMPOUND_NAME=Andrangine.mgf
IONMODE=positive
SKELETON=Secoschizozygane
103.054149009336 0.07607584076419166 
104.049463544724 0.040197585610060683 
105.069784694868 0.11394378108362728 
106.065159927826 0.360769712770852 
106.072086583992 0.0504902569945008 
107.072953053605 0.08127805797164954 
107.085500635673 0.05661449072146879 
108.080849679552 0.11754538483447625 
110.060164877175 0.03625540827728239 
110.096487409704 0.037087115220296646 
115.05445309133 0.1588761474924961 
116.062030623195 0.026179260784786277 
117.057410571594 0.20737339789233836 
117.069848584463 0.19874951252108758 
117.077505193301 0.03806482483622899 
118.065251650157 0.33362092763402934 
118.072704367241 0.056636908178691145 
119.072989255152 0.1029796463860833 
119.085181654506 0.03469883224152663 
120.080753449665 0.1891098306421576 
120.088135874308 0.02648064325307276 
121.088431340878 0.05101682185658261 
122.096688265161 0.11592261683062025 
127.054419042165 0.09726389588764982 
128.049502162521 0.059149346011436586 
128.062021756969 0.06925790154021427 
129.070077327281 0.0972157833621804 
130.065210679515 1.0 
130.072671028507 0.14780439497841946 
130.09152751382 0.03868195342111605 
131.073135967206 0.1648137940100344 
131.08473444845 0.0544225313848783 
132.081015652726 0.3281896457288084 
132.088812369034 0.050734167342199245 
133.088706414039 0.08942251823937954 
134.096609768187 0.13599675744363868 
135.104381787213 0.03922412637206143 
136.112172811459 0.05171839712551761 
142.065207796445 0.03725239795806586 
143.072891398501 0.3053071883969064 
143.080997460207 0.053212821243126 
144.080990083187 0.8223535700983722 
144.088954400606 0.11678872992572793 
146.096673242869 0.0772035142300024 
148.075601706846 0.3160935959511864 
148.084237976412 0.042767451745064966 
148.112183308375 0.20559358499660407 
148.118822027338 0.04089605854128782 
150.128104569778 0.05375383739018032 
154.065294726086 0.08030980435116009 
155.060699485268 0.03931782748723791 
155.072619829221 0.07587359288390333 
156.080914285196 0.18936967333435575 
156.089718878127 0.0251618955809215 
157.088760484929 0.06518799377779726 
158.09671177955 0.1490141314111693 
160.112151750256 0.1953835637447144 
160.120547870662 0.03532163968187893 
167.072930107076 0.2655910435335101 
167.081339259798 0.04497219727011809 
168.080828595343 0.5314845211752076 
168.089639057512 0.07978395810967728 
169.076344223249 0.03931164910281971 
170.096337547692 0.12105251626755471 
171.091186109576 0.03398574151567601 
178.122829869463 0.14920439059658655 
180.080821572546 0.3135690467322481 
180.089250407901 0.046789764038297224 
181.088505035781 0.106364962863966 
182.096387521785 0.26047017067239225 
182.105703481218 0.042574589750892795 
183.092032182108 0.053197642573888655 
184.111612454053 0.030333448721600244 
192.080861939355 0.034535056854282146 
193.088322348756 0.08638387485485179 
194.096342911097 0.44125600858839253 
194.105282637207 0.06469453804526433 
195.104266090452 0.1346904454133164 
195.113482245887 0.025999176215410907 
196.111991950454 0.10002392480774708 
197.106852356921 0.04251547882479241 
205.088605716847 0.02762281182218522 
206.083720273096 0.029748526608680412 
206.096191484747 0.07032819928576124 
207.091452287519 0.07170832767346581 
207.10384455206 0.029577845452752886 
208.099634563283 0.042347970115899476 
208.111768701623 0.10728602414389939 
209.107541464101 0.1211731919461911 
209.117934621779 0.03044909405604364 
210.12768625977 0.1138717437504108 
212.143438659835 0.027187152465876475 
218.096394568152 0.03939914554258046 
219.091318879372 0.04924306465394474 
220.099151394388 0.05031058431741997 
220.111921658794 0.04732794952128475 
221.107149995756 0.18212878206953967 
221.117983934317 0.04741570887102075 
222.12643408942 0.02557454155073067 
223.123064302382 0.04947857940976711 
225.137898638168 0.03388161163814824 
232.112108258152 0.02594678702101089 
233.107436531588 0.03206617444076857 
234.115163113306 0.02991302938018973 
234.127195394524 0.03672854983239489 
235.123278432713 0.06469521284753413 
239.118087690889 0.035980719935148876 
247.122085764827 0.04113865433911005 
249.13874320543 0.16952882150603596 
249.149257794696 0.03105396227241855 
261.138925745798 0.029077904607497318 
263.154430501268 0.03464422583966874 
END IONS

BEGIN IONS
TITLE=melonine.mgf
PEPMASS=283.215
CHARGE=1+
SMILES=CC[C@]12CC[C@@]34[C@@](C5=CC=CC=C5N4)([H])CC[N@@]([C@H]3CC2)C1
INCHI=InChI=1S/C19H26N2/c1-2-18-9-7-17-19(11-10-18)15(8-12-21(17)13-18)14-5-3-4-6-16(14)20-19/h3-6,15,17,20H,2,7-13H2,1H3/t15-,17-,18-,19+/m0/s1
SPECTRUM_ID=CCMSLIB00006126876
PRECURSOR_MZ=283.215
COMPOUND_NAME=melonine.mgf
IONMODE=positive
SKELETON=Melonine
115.054131 0.3413166724367206 
117.060783 0.21180237940862742 
128.054626 0.2269975804308218 
129.065277 0.15055435626336716 
130.064789 0.3688138883271339 
142.064606 0.13115151748481158 
143.072342 1.0 
144.079544 0.22878604772666083 
154.064911 0.1573690161701593 
156.079819 0.33839293429465356 
157.087799 0.1468982618027216 
167.072357 0.3794487259760615 
168.076218 0.3436152669504358 
169.076645 0.48992354033272495 
180.079468 0.31439586485455484 
181.077194 0.44574519277821073 
182.090134 0.2814623245346568 
183.091919 0.4380331241064654 
193.085968 0.15725582318523124 
194.094666 0.21077775135257482 
195.09166 0.4284162711692979 
196.101349 0.1779620455214303 
206.092499 0.12896818172502225 
207.094894 0.15205453011927886 
208.106506 0.16793940895041504 
209.107117 0.7662623291076777 
221.107025 0.20530605491179527 
223.121933 0.2342485632156305 
235.121277 0.1090415464089458 
251.152939 0.11874719920925815 
253.168488 0.10925532137927267 
END IONS

BEGIN IONS
TITLE=Grandilodine_B.mgf
PEPMASS=455.1820666
CHARGE=1+
RETENTION_TIME=1503.593
PRECURSOR_MZ=455.1820666
SMILES=O=C1C=C[C@@]23CC(C(OC)=O)[C@@]4(CC3)N(C(OC)=O)C5=CC=CC=C5[C@@]4(C(OC)=O)CCN21
INCHI=InChI=1S/C24H26N2O7/c1-31-19(28)16-14-22-9-8-18(27)25(22)13-12-23(20(29)32-2)15-6-4-5-7-17(15)26(21(30)33-3)24(16,23)11-10-22/h4-9,16H,10-14H2,1-3H3/t16?,22-,23?,24-/m1/s1
COMPOUND_NAME=Grandilodine_B.mgf
IONMODE=positive
SKELETON=Lapidilectine
103.054512496915 0.14415567303327448 
104.05084828842 0.04177757782953036 
106.065328917676 0.06332298714883006 
108.045763802509 0.13883489419694078 
110.060885585879 0.06813207827356495 
115.054930256601 0.1023644313514086 
116.052884112248 0.03015118297116813 
117.061673618115 0.04685726522138528 
118.066626333042 0.058585123525449374 
120.04589734879 0.1963646679098985 
121.057769520661 0.03479261976504673 
122.060773990531 0.14339366549654697 
127.055136033112 0.052809798200660736 
128.058187300036 0.11741611515719279 
129.069624277493 0.08619510616374591 
130.066038869117 0.21536944554654272 
131.053028556496 0.14088031277711544 
132.044959281998 0.153575818783199 
132.076328403922 0.06460514716180178 
134.060881388627 0.1480253215067086 
136.076214299115 0.09255640116550548 
141.068826286529 0.03535662329652704 
142.068740733839 0.07769625499965394 
143.076907047297 0.08817381394999713 
144.08158523962 0.1514779544059506 
146.060795744139 0.1013757435913933 
148.04014124026 0.04690722520465721 
148.074930135392 0.0742083495398645 
150.05743374154 0.10566179024735634 
150.091862069935 0.028834026599182508 
152.065132519437 0.03024871460680437 
153.068587918978 0.03924368871372296 
154.066583401452 0.21487748187386815 
155.074829734796 0.11115105201914695 
156.045384007191 0.14245508394414488 
156.079559144705 0.18756618682336715 
157.089270198041 0.07362887872250616 
158.060556597142 0.09311208615668165 
158.093665369511 0.08660068374501984 
160.076555091606 0.07739425299345598 
162.057089769318 0.05243110965103398 
164.072073955106 0.14811016411895123 
165.070208552275 0.049202070016763806 
166.066495524925 0.12459828111662105 
167.074286490661 0.19644622859803676 
168.081959624245 0.303223791805133 
169.088828416118 0.08276421194990809 
170.060111969792 0.02973806671274358 
170.097587671958 0.2794862196556059 
171.104908152928 0.14829278207406554 
172.076974543405 0.04757296838337293 
172.109887956862 0.048168865068402116 
176.072115114006 0.029465260833355267 
178.071066109786 0.03629561102765492 
180.081243582349 0.20142354270384402 
181.088893188532 0.08609299283208278 
182.094071312568 0.15691970951397302 
183.068733269379 0.05768754977720285 
183.098806559074 0.05920790924212573 
184.07765123603 0.1062355095739575 
184.109112672285 0.04819739506210148 
186.128777347997 0.024808161787810284 
188.072434916618 0.09254493067828923 
190.069550640359 0.04589324063359982 
191.074698937858 0.0401779647716317 
192.083043714109 0.051066137919448584 
193.089444653246 0.030219567221441816 
194.089502684973 0.05905481235680169 
195.086579918391 0.025027628276928105 
196.076473580065 0.07629165647158065 
196.105031824389 0.05176426166618413 
198.093241335319 0.18357604949271525 
202.086550079091 0.09704688569773218 
204.081967984518 0.10788735721599252 
205.085839285881 0.0468319196688961 
206.089327791864 0.058873689139398264 
207.093562120125 0.02698913033235493 
208.07992899062 0.13169142894650562 
210.087039962319 0.05899442170385152 
212.074684938806 0.06390781952536878 
214.087195707427 0.15293443008088156 
215.093787971207 0.11215047914467209 
216.088685121655 0.04098539933705133 
216.101463365314 0.05073620706406543 
217.089022881049 0.06847854872666219 
218.092450439214 0.07638148695857594 
219.094946933692 0.053395312957458786 
220.093805640645 0.06276207057566573 
221.097993489325 0.029504790146948963 
222.086134535178 0.033982163229907235 
224.103744977438 0.026317018271218854 
226.087397417075 0.08155725998980329 
227.094145500429 0.025485277970848062 
228.088782954075 0.10835780966334932 
228.097000703232 0.04903217357934116 
230.09730689753 0.05646121496830344 
230.118877785284 0.06818834215066111 
231.097414000234 0.04979312505138161 
232.094406943864 0.09545750834372338 
233.101772662758 0.06289541092776745 
234.0945774927 0.04117045436452038 
235.091760438906 0.03128071726613772 
236.079563531442 0.030376920859812123 
238.087759538126 0.031512547835668536 
240.09905188792 0.09587681476592895 
241.092425548709 0.02578445297311454 
242.086878210368 0.20801517353742352 
243.093606719282 0.04453748103551529 
244.097410036566 0.04251038923944821 
245.102918620059 0.02957962451538816 
246.092404296731 0.05098230263044592 
247.100488877393 0.0700379338435588 
248.10435444365 0.04904193811590911 
249.105770184993 0.05966632255205018 
252.102683298968 0.02528389455860233 
254.083745959547 0.04913860865264668 
256.09349208261 0.03567050196866704 
257.104998604483 0.037143858431441745 
258.099782143452 0.05622594000317794 
259.103999314731 0.05668843134750929 
260.096180285377 0.09960194484872767 
261.105518268608 0.06294936770970114 
268.092414313339 0.031100016474609117 
271.092538418342 0.02656377997070964 
272.094638117589 0.03338969469332369 
273.103758525631 0.024756154663760375 
274.108449577794 0.2913742586019718 
275.118993217215 0.16825206346916274 
276.120420237385 0.032014552246444554 
277.106630714496 0.04513012829073818 
285.104621707744 0.048279573141902926 
286.105101447713 0.10426388554468403 
287.117560914486 0.0612028804245575 
288.09479398314 0.02773606051478117 
289.099809022255 0.04068105774139283 
291.14545494443 0.030616095140705183 
303.115351409025 0.28221362856352783 
304.120553181957 0.03885435828148055 
305.12415350594 0.03028444208752469 
307.141651812717 0.04362920041605699 
309.125888428228 0.055461966561417636 
319.144424965995 0.05535473537780958 
321.123470437527 0.03327014817074973 
331.110290901708 0.17501445183906353 
335.139647597559 0.26011734340916526 
345.125789407757 0.02922944971231173 
347.140928739849 0.07381536349909 
349.120627160813 0.10200395585584619 
359.104470173423 0.03069932928519368 
363.136612295067 1.0 
364.140110485986 0.033802957176089526 
379.167465007559 0.05414281179010113 
391.132682232582 0.13537821575758993 
395.162474780966 0.07159265602868337 
423.157897664625 0.10156832104886394 
END IONS

BEGIN IONS
TITLE=Grandilodine_C.mgf
PEPMASS=381.1441613
CHARGE=1+
RETENTION_TIME=1445.498
PRECURSOR_MZ=381.1441613
SMILES=O=C1C=C[C@@]23C[C@H]4[C@@]5(CC3)N(C(OC)=O)C6=CC=CC=C6C5(OC4=O)CCN21
INCHI=InChI=1S/C21H20N2O5/c1-27-18(26)23-15-5-3-2-4-13(15)21-10-11-22-16(24)6-7-19(22)8-9-20(21,23)14(12-19)17(25)28-21/h2-7,14H,8-12H2,1H3/t14-,19-,20-,21?/m1/s1
COMPOUND_NAME=Grandilodine_C.mgf
IONMODE=positive
SKELETON=Lapidilectine
101.040037491735 0.034804515221358474 
103.055012481468 0.11097261490766168 
104.050832720695 0.13514035077534006 
105.068651219094 0.05887065280285482 
106.066317445627 0.250788035011737 
107.063355764791 0.04767231553137839 
108.045908368989 0.317602977120066 
109.051114613382 0.04020544141068737 
110.060952303116 0.12063172846745275 
115.054928417709 0.30906817922324725 
116.055907480581 0.0932818181642254 
117.060750763446 0.14248724215806371 
118.065801902246 0.1735338206180659 
119.069863145503 0.03196239121726358 
120.044913171393 0.05627724527374449 
120.078251245819 0.0363744932180725 
122.060701701003 0.2728605626416329 
123.063903630705 0.028077953945980675 
127.054977474784 0.24632076804433944 
128.059451064929 0.5370001606220525 
129.068521426092 0.26290745266971266 
130.066631502731 0.381355146969178 
131.071562496394 0.11034444721823893 
132.045692493768 0.7901827027466372 
132.147640282265 0.028395079933661155 
133.051517083525 0.12066574937928286 
134.06082381851 0.4759239154624851 
135.063968461239 0.051575547518002245 
136.075281953707 0.04133076338049429 
139.053969694553 0.025127059784302002 
140.051716177138 0.060907301723687496 
141.068354506602 0.0741695356087479 
142.068410827322 0.1296581072529565 
143.074756808286 0.1718568102782632 
144.081156178511 0.2469318672216836 
145.084591940477 0.04337461126560502 
146.061171748579 0.2912919625112 
147.067640658358 0.12778208038456404 
148.040256630136 0.04848239253320329 
148.071237613985 0.05453347034587927 
151.055032363857 0.055653064107550984 
152.062203946387 0.08465072444416062 
153.065582094413 0.06574012900079537 
154.065699217919 1.0 
154.1767202699 0.026956219847080066 
155.072468235909 0.4799990711013835 
156.045301147809 0.038763984278390916 
156.076291853339 0.18779256919810894 
157.087314107989 0.06629692631318204 
158.061479678288 0.2369219009136105 
158.092576070704 0.07039716221472653 
159.06745895481 0.049088498880483646 
160.076104600644 0.1126722284471331 
165.070136481386 0.14416305267048676 
166.066946857451 0.16997056552508896 
167.073326329542 0.32303451825963103 
168.080890323976 0.4878753572873064 
169.086863662583 0.16738180248906126 
170.096146426077 0.25865599981422027 
171.099507194921 0.05174305890184831 
172.077158879782 0.13260229012213082 
173.082897056115 0.04996027023208919 
176.060532868105 0.026588848185067567 
177.065763725225 0.037333801653052494 
178.069333709534 0.11265647587476124 
179.075762563601 0.06672592265757894 
180.08136505665 0.23006473262233887 
181.087231639269 0.12309032958484038 
182.059878780114 0.03769684232526546 
182.093026698181 0.24525253463533955 
183.09842950291 0.0936504360985484 
184.075347354615 0.026647380409141136 
184.093219888139 0.03247915686968907 
186.092634175297 0.026421433561494054 
188.070519478894 0.06974360462978553 
189.071262051809 0.04509849228143306 
190.068062343813 0.07249984034555029 
191.073773647337 0.12496956889428165 
192.080721902382 0.17642168900861363 
193.085397971886 0.0938528972928411 
194.09318010233 0.11541754960415372 
195.091620123178 0.042155044790330165 
196.079682044828 0.11658173049941847 
197.082268250454 0.03608219978674036 
202.075434855479 0.03851827898308824 
202.087307067364 0.028862687497218147 
203.075855038148 0.06868965303701467 
204.081193007791 0.25126672743211786 
205.084748428969 0.11786368799843636 
206.094531438311 0.14754219231684731 
207.098137552438 0.07139619267679553 
208.078324135755 0.06079293108152827 
209.104340192985 0.04107659349654856 
210.092766766706 0.17888516684373795 
211.09490853783 0.04779044047211272 
212.072858825757 0.0363985400810077 
214.087155377802 0.9725529810872372 
215.089146684491 0.21046055954530415 
216.081562979757 0.07462492815549764 
216.092743963945 0.03625578384529193 
217.088394732661 0.11074638939042965 
218.094453598678 0.07263956217911874 
219.092729711352 0.04496519532996221 
220.09032516503 0.0598470413611461 
221.092634144958 0.04283623710911269 
222.092464538467 0.07045138667146598 
223.090151229952 0.04210093644591778 
228.101747611069 0.08821568251793453 
230.095244095366 0.03288375414375867 
231.098604135986 0.03498821266359743 
232.08525028366 0.072515360693268 
233.089551042139 0.05260298679609321 
234.090649368223 0.10137736312775646 
235.09284202363 0.06545329284883529 
237.103445777724 0.04159929248888709 
240.101223558239 0.03379844448185842 
242.117525526952 0.11737644196996175 
243.120634324134 0.03290742170642546 
247.092101326499 0.0337213033221672 
248.099152983206 0.041967329861574754 
249.08290052446 0.03340151062137512 
249.097606955793 0.04544028826820399 
250.087336220073 0.03495421497423274 
251.085782489909 0.027361931799489494 
260.10516008052 0.04127580354568343 
262.102797804153 0.035879142549168734 
263.107503032373 0.029032943002393848 
277.132250669125 0.13997495844146293 
278.135291733896 0.039909896834197406 
287.11776919578 0.04141904745317287 
288.111994782642 0.026156236876888034 
305.129064540283 0.7346159875063136 
306.132182724111 0.21304808404984316 
307.134582508826 0.028412953491207395 
309.126562792939 0.029980384757547784 
337.154692704367 0.061197737357786594 
END IONS

BEGIN IONS
TITLE=tenuisineA.mgf
PEPMASS=397.1762207
CHARGE=1+
RETENTION_TIME=218.692
PRECURSOR_MZ=397.1762207
SMILES=COC(N1C2=C([C@]34CCN5CC=C[C@]56CC[C@]13[C@@H](C(O4)=O)C6)C=C(OC)C=C2)=O
INCHI=InChI=1S/C22H24N2O5/c1-27-14-4-5-17-15(12-14)22-9-11-23-10-3-6-20(23)7-8-21(22,24(17)19(26)28-2)16(13-20)18(25)29-22/h3-6,12,16H,7-11,13H2,1-2H3/t16-,20-,21-,22-/m1/s1
COMPOUND_NAME=tenuisineA.mgf
IONMODE=positive
SKELETON=Lapidilectine
103.054282676153 0.13356358985989317 
105.069914399131 0.13486935180785348 
106.065133888936 0.06782033421170101 
108.081049371393 0.09339901291632467 
115.054264891969 0.30586724408541766 
115.06123410479 0.052730094532521206 
117.057504327043 0.07434626405748268 
117.07003447592 0.3351933848834363 
117.077336016426 0.05731817069131856 
118.065102924096 0.06134295757916109 
120.044807340131 0.10474282546402293 
120.08098489832 0.14454962057396287 
122.060150382419 0.045230130531196455 
127.054074478301 0.0583027344593719 
128.062201151808 0.22893650013679498 
128.069820173977 0.03984324826846372 
129.069612917683 0.05330121351534264 
130.065553856409 0.10834831778190564 
131.073039299435 0.11781920925309948 
132.044641217531 0.0424189984808559 
132.081151430713 0.042521491209123505 
133.052340824388 0.2055508607283252 
134.060305322918 0.0875927415871096 
141.070154395781 0.39582896849395943 
141.077878061037 0.05952110962316587 
143.036826006629 0.046430326363989805 
143.049264177237 0.09603308098261985 
143.073045025736 0.04643631114374991 
143.085750638602 0.1424376682938068 
144.081073388903 0.05704624569815831 
145.051893550109 0.03569182254093049 
145.065014256494 0.07693344384926636 
145.088932727596 0.26704613770213254 
145.096405330831 0.05243585036070673 
146.060224198425 0.23724602934612007 
146.068252807308 0.04370867352081444 
147.068033678494 0.05226575662015638 
148.07598184664 0.15366835500453582 
149.083828680647 0.0516292550434144 
155.073582472868 0.0431433143260328 
156.080898649126 0.040455675731133095 
157.088674522883 0.0490264608262416 
158.060318138286 1.0 
158.068530207817 0.17324501958327934 
159.06813976184 0.16560425576338791 
160.075815666037 0.08676351210275463 
161.047359069973 0.2272218382363529 
161.055284297325 0.04797142965138883 
161.083435661584 0.04320012023557533 
162.055336931724 0.08585859540368915 
168.081018995484 0.044666980755108214 
169.065167623775 0.0655917012253949 
170.060243582598 0.03797884087865567 
171.068549031824 0.046538277391392 
172.075880432006 0.14825496421731682 
173.083749272185 0.3726260673607211 
173.092185007853 0.06761464678099846 
174.055050677588 0.06522815960372659 
174.091500612443 0.2323161457658358 
174.099612661698 0.04279329470675479 
176.034464803484 0.15193839366711306 
176.070744534621 0.41164588643137934 
176.07902948564 0.07715483570204618 
181.088845005017 0.036006477961611015 
182.060012695307 0.047267115570147025 
183.068500735402 0.041612281668034615 
184.076001147933 0.0821590565467191 
185.083483666443 0.06737116074128473 
186.091325256439 0.08435574070874192 
187.098928151491 0.03877016375797371 
188.107055730746 0.09547150164873933 
189.078663265789 0.06954246583725719 
196.075823384943 0.16794020980027935 
196.084220669345 0.041579495874551814 
197.083248593062 0.07429235604129768 
198.091357848683 0.07175089456707993 
199.063031941006 0.13426596901234034 
200.070910637124 0.08457803252840296 
202.086652269178 0.03961540815297997 
203.08549712589 0.0456091965815658 
204.081287840899 0.053294058778636945 
204.101287808664 0.035907909088945526 
205.088496425761 0.0959635585410457 
206.096092375596 0.05590900254870621 
207.104345697209 0.03932941217763187 
209.083635089754 0.056970693478479995 
210.091269838142 0.06572102646622605 
212.071247395358 0.049148361340302676 
214.086304913584 0.07691548950998603 
216.08109887905 0.04081350706294009 
217.088974085042 0.04981114194997624 
218.081502929015 0.08118182750874768 
218.096054233082 0.08633481287888606 
219.080003292665 0.04441937286707849 
219.104664072902 0.08718015177041485 
220.075859846137 0.061389800855328525 
220.112623701817 0.0597785451495385 
221.08338699848 0.058909222140625224 
221.120090801257 0.08805563955246447 
222.091580681956 0.10824000676775096 
223.099860203432 0.06420728217201607 
224.107352289843 0.06273322641726785 
225.079050304039 0.04406248650049678 
226.086546893036 0.06291695465606865 
228.081232786452 0.0575365476550463 
229.08902954477 0.22298168927383472 
230.096482845334 0.09059903595547684 
231.104610272709 0.1686334092905381 
231.114854125946 0.04009627395711838 
232.076002217347 0.07076489085201665 
232.097163841937 0.5141128306478322 
232.109013932677 0.11696874055034774 
233.083332828341 0.12023004053450834 
233.095037147679 0.04840314376430947 
233.119855021724 0.05171641683586044 
234.056151017947 0.03755277405791467 
234.091480973505 0.16434682203694906 
234.102507078678 0.04596877834895676 
235.099016505583 0.07283422970034703 
236.070672016209 0.05330364342592193 
236.106997936594 0.09998047071867756 
240.102145203746 0.08126525443863666 
241.088726179016 0.04452240557547482 
242.095467742326 0.038912520519244896 
243.104657883378 0.04354815092804585 
244.076262569831 0.05590193780868864 
245.083679346311 0.0395970443287687 
246.091497887353 0.09565392493556236 
247.099614578375 0.22972221622244304 
247.110454817288 0.05741019230492318 
248.070577430177 0.04568164391550391 
248.107244880209 0.2703327267556554 
248.117810513337 0.05810762163952367 
249.07824145597 0.055734318977061645 
249.114964292402 0.10032722795801113 
250.086557192016 0.06569897727763618 
250.12322418731 0.0910701236194508 
251.094812188323 0.039605580514637063 
256.076295841176 0.036392059772200384 
257.083697486803 0.2201313591659827 
257.094408686738 0.05148877021325616 
257.104122240546 0.04281761181188532 
258.076617538361 0.09783377971690642 
258.090638676333 0.13176163117197287 
259.099519058341 0.06875341987414864 
260.070924857429 0.06361096411652052 
260.107020540599 0.06565829877460509 
261.078657499181 0.05862024277506588 
262.086451142599 0.07526873011073193 
262.123065052171 0.20644497782481605 
262.13341557411 0.04557018301726497 
263.130708001925 0.04607002462309387 
264.102336184914 0.0503406374645413 
264.138590904033 0.08614230996299335 
266.118041337353 0.055113116837300385 
272.107401954899 0.18806594417325442 
272.117079243455 0.043933449249067634 
274.086201811877 0.08701055301164917 
274.122933326267 0.062192841303440036 
275.094536287233 0.17054057410687287 
275.105506666905 0.04134564398030153 
276.10226035671 0.16769276390628826 
276.112334694653 0.043135637608536004 
285.078490557667 0.05776522923956399 
286.086867632983 0.038640348035192305 
288.065791120404 0.24046665082724955 
288.07694224329 0.05044413365588146 
288.102235324688 0.04401344280530477 
290.118031763368 0.18427366372917478 
300.102444207921 0.08550319848229586 
302.081727351464 0.0844632417527035 
303.089342718081 0.14084837177991852 
318.113824058664 0.052117892061572135 
END IONS

BEGIN IONS
TITLE=tenuisineB.mgf
PEPMASS=427.1884054
CHARGE=1+
RETENTION_TIME=199.06
PRECURSOR_MZ=427.1884054
SMILES=COC(N1C2=C([C@]34CCN5CC=C[C@]56CC[C@]13[C@@H](C(O4)=O)C6)C=C(OC)C(OC)=C2)=O
INCHI=InChI=1S/C23H26N2O6/c1-28-17-11-14-16(12-18(17)29-2)25(20(27)30-3)22-7-6-21-5-4-9-24(21)10-8-23(14,22)31-19(26)15(22)13-21/h4-5,11-12,15H,6-10,13H2,1-3H3/t15-,21-,22-,23-/m1/s1
COMPOUND_NAME=tenuisineB.mgf
IONMODE=positive
SKELETON=Lapidilectine
103.054304488413 0.07694759592018739 
105.069751017171 0.10953805266954758 
106.06410818967 0.05397275298242826 
108.080657499642 0.20510362710652386 
115.054162357734 0.1067813091385144 
117.069748118466 0.17468302591670848 
120.081222786919 0.11531117834644398 
128.061974010012 0.1791082807750471 
129.070352150007 0.0846112233831435 
130.065889349524 0.05290379039704696 
141.069768761142 0.1383692630651911 
143.085769372119 0.12010689997137403 
143.094437471392 0.04159512341280906 
144.081329119855 0.07334217235801094 
145.064579712325 0.0765944309689128 
146.060287411655 0.07330311332429135 
146.095496816438 0.06385877263298356 
147.06797376601 0.0852663904069231 
150.054296013643 0.06259689109398339 
152.070258704149 0.06176306240645974 
153.070339590636 0.04467558910639094 
155.085176324264 0.08387864373074662 
159.067589166103 0.047051544187017035 
160.075549007833 0.13059722079381175 
162.05478746013 0.04425121196246026 
169.065288278154 0.07998005464551886 
172.075421417353 0.09623013493559529 
173.083391756348 0.061480886877686935 
174.091003231169 0.2423507597761754 
174.098841025274 0.08496048985671796 
175.062763524673 0.13739178475650665 
176.070516989661 0.07948316581636536 
184.075635099023 0.1156692813694721 
186.054433018531 0.05045179643708841 
186.090878001381 0.11236604552159589 
186.097767156373 0.05145062355222605 
187.061510479827 0.04772456995149922 
187.075325909958 0.08470077698516981 
188.06988604342 0.17324890592007972 
188.078785486792 0.041683043367037216 
189.078827567143 0.06634466478475391 
190.085557032635 0.0784616161454897 
191.057053197894 0.07019985081825333 
192.064963494715 0.06544155457924473 
196.075582693549 0.06027555182951845 
198.092261556219 0.07159569147670251 
199.09966130891 0.05468194176862423 
200.071201342123 0.18469866066870402 
202.085680405178 0.28986897030808 
202.094756982985 0.046200970609562256 
203.093696464792 0.22202821829544445 
204.065504089753 0.056884767311004586 
204.101786107848 0.10411382218263514 
206.045099491818 0.08069213944372065 
206.080278260831 0.13299608407197108 
214.049850054112 0.050692202561931035 
214.08601817373 0.16795380786593989 
214.092968541341 0.0444085248197511 
215.092821955667 0.06260892068231527 
216.06313539412 0.052574536108999946 
216.100608074664 0.06264092532781557 
218.080818069162 0.20251511217034193 
218.088261196089 0.05496233513616269 
218.094633712552 0.055661870549005905 
218.11765256786 0.04967009596566964 
219.089623604082 0.08945064508667429 
222.093873922657 0.04434347593469715 
226.08571463646 0.10886825707230266 
228.065547420743 0.05219861147362828 
228.10096233431 0.05872978685722921 
229.072687034 0.13205651381787573 
230.081076173852 0.13217317112200788 
230.092112829834 0.04891249179927369 
232.096771098879 0.057916044611951094 
234.074879773059 0.055168434657243984 
234.090551464011 0.1116613121384858 
235.099212156949 0.08571556929469856 
236.107389908907 0.05595808059749926 
238.085800356379 0.041834489943598306 
240.101916441442 0.0555522676330931 
242.082812636512 0.04336410407970122 
243.088961657932 0.08571025993935455 
244.096795998436 0.04512989170771516 
246.075581203538 0.05138111926408622 
246.088897545281 0.04836819005561457 
247.084181459531 0.05205418215692747 
247.097547062243 0.06168854578984829 
248.091556730513 0.10971400396308105 
248.10580931147 0.12079514836306635 
248.115389108603 0.042435783718397735 
249.115619641897 0.04674219069942031 
250.08536462684 0.08205077748640267 
250.123849858016 0.05837394866410308 
252.1010711403 0.0635788248057537 
255.088093941043 0.04830503471687213 
258.090592009638 0.05572487737431216 
260.09107634507 0.09222732654651682 
260.104992464087 0.06428296413511901 
261.099359919957 0.0921712255959937 
262.086588024905 0.08172234002225474 
262.1072737708 1.0 
262.118018015788 0.2319293491881327 
262.131772192548 0.06606200658731347 
262.142837017286 0.05588530901376311 
263.094644321465 0.04286565585946768 
263.107690098934 0.047464931336669194 
264.102410694427 0.09570528845207786 
265.114151749587 0.04353077328347242 
266.117144385886 0.060635437013780935 
268.096979779157 0.051946212888812814 
270.073724692361 0.05441083049084804 
272.071723588807 0.04823905762284196 
272.086520110955 0.04698367354667536 
272.092588967182 0.058463910678078934 
274.086058154295 0.05632747064167829 
274.107954835007 0.14808408385217123 
276.101636417961 0.08939536096005025 
277.110963489133 0.057798904639151334 
278.080384652317 0.04330833728440955 
278.117391166233 0.16392634624645286 
278.128872170946 0.04572383406742288 
280.098197901686 0.062302611720160585 
280.132757801309 0.0841010797298095 
286.084905910705 0.05379197500221842 
287.091976376331 0.04525568258817335 
288.086216885673 0.23710823547844903 
288.099877301711 0.13266567880479357 
289.110364829343 0.04172789442476848 
290.080239863417 0.09629258483551581 
290.116708979056 0.04859753192946057 
292.095060558653 0.0434942018498091 
292.134273394787 0.07500897578080011 
294.111449517691 0.05457426952738198 
294.14537871404 0.04851488420221738 
294.150363428915 0.041267985441227846 
296.126965162021 0.07449010696308958 
304.096304484094 0.09882666959733181 
306.112456595561 0.1136934957426767 
318.110994373973 0.06562158999227359 
321.133820574843 0.05574284750009189 
332.090199381634 0.04257011412143721 
END IONS

BEGIN IONS
TITLE=tenuisineC.mgf
PEPMASS=411.1583761
CHARGE=1+
RETENTION_TIME=314.19
PRECURSOR_MZ=411.1583761
SMILES=COC(N1C2=C([C@]34CCN5C(C=C[C@]56CC[C@]13[C@@H](C(O4)=O)C6)=O)C=C(OC)C=C2)=O
INCHI=InChI=1S/C22H22N2O6/c1-28-13-3-4-16-14(11-13)22-9-10-23-17(25)5-6-20(23)7-8-21(22,24(16)19(27)29-2)15(12-20)18(26)30-22/h3-6,11,15H,7-10,12H2,1-2H3/t15-,20-,21-,22-/m1/s1
COMPOUND_NAME=tenuisineC.mgf
IONMODE=positive
SKELETON=Lapidilectine
103.053758722303 0.045849049205721054 
106.064918389995 0.3197048845153704 
106.071535502676 0.06412884381168198 
107.048784904419 0.06315017832319204 
108.044405304019 0.4367186107323761 
108.050932659342 0.06366406764437549 
110.059836753011 0.15245592043911604 
115.053863259132 0.15375218432267707 
117.056291304103 0.08426325620614428 
118.06489776547 0.1313923195111806 
119.035959344326 0.09599095186142895 
120.045298496516 0.060673015939744834 
122.060221967245 0.2990432030022487 
122.066915807334 0.05503680656976352 
127.054507627344 0.07863739495747367 
128.049269177919 0.13663392591149365 
128.058553862063 0.05262343065283306 
128.061840218134 0.057086664303306674 
129.070362969862 0.06798392322340745 
130.065632593295 0.05264000381586973 
131.07282746777 0.1884996396347598 
132.044449895871 0.4952210678048522 
132.052180922257 0.09516261708838629 
132.080232395231 0.05788872454958387 
134.060291732776 0.47552568254146627 
134.067415573884 0.11382577725102964 
136.075259887514 0.04986238211327232 
142.065088111443 0.09432615742322077 
143.073125263149 0.06449620211821193 
144.056495675102 0.09817683079891942 
144.080777661076 0.09134775791378641 
145.052118427154 0.06934542877804452 
145.064372543453 0.06447388898163572 
145.088229316697 0.07743272811645194 
146.059759338466 0.2699969157747812 
146.064850872519 0.08955927108803624 
147.06768556378 0.13990215366232545 
154.065333025604 0.1834212182568347 
155.072438213532 0.1637280562226366 
156.044344335132 0.09348048146251292 
156.080304230135 0.23071116251037338 
156.090118151219 0.04724188208073233 
157.088679772203 0.5660931678550163 
157.095610469354 0.11342955738740658 
158.060327434634 0.08938468696326698 
158.071799334766 0.047059698554375536 
159.068171369299 0.14627788990488216 
159.081324663446 0.066207643947016 
160.075901099867 0.3884056576736372 
160.083671852689 0.08989805079391514 
162.055081534762 0.2973278806279531 
162.060164799323 0.07655398667436847 
167.072746448772 0.06717656764942828 
168.080623830115 0.6568397241740602 
168.087745499489 0.14249193270972427 
169.052216355139 0.12318310636858147 
169.088664561025 0.3329975314071545 
169.098235322396 0.06966444195532602 
170.059881572699 0.4090535551657943 
170.068423962029 0.06643097742452238 
170.095709145736 0.1486775626455457 
171.068213857339 0.07063894394188236 
171.104187180972 0.06845270120325206 
172.075278945742 0.15841571071180116 
172.085831833802 0.05343486888404809 
173.083160663214 0.09417526079488932 
174.091597491876 0.10429208542535831 
182.096350285746 0.047574234633140915 
183.067371792269 0.18961270943324227 
184.075553404556 1.0 
184.084353482412 0.19374900712605586 
184.098739808574 0.052841509224986344 
184.108959243558 0.047333236589178374 
185.083231255225 0.7363242098744522 
185.091657222127 0.1646687247031888 
185.117921124837 0.06535105395211326 
186.055245893676 0.15413114384333268 
186.091204805671 0.16858662044505815 
187.100425457296 0.04980053591950132 
188.070683680918 0.25698043437047646 
188.080136040426 0.05531745893796746 
188.106321434186 0.05857691503909448 
191.071215354249 0.05745046544313607 
195.067674065813 0.10240876776915928 
196.075610924428 0.1358461751767164 
196.083469099828 0.05801249778182361 
197.083174568543 0.17467087112991378 
198.090914583701 0.32300488423241397 
198.099628052362 0.09894311726644675 
199.063571758092 0.04454199255501178 
199.099320450902 0.09434931942912325 
200.107301074318 0.24874822091137033 
200.115688774202 0.05419408144052316 
205.088221213644 0.062094023191918445 
207.067713498745 0.04998963166751486 
208.075878466557 0.11684932852415174 
209.08385362405 0.0807625595269615 
210.091205739646 0.1754435039062137 
211.098204465452 0.056447344433579814 
212.070771311924 0.13920519152311006 
212.106645844491 0.2858600602535532 
212.117518972852 0.04446636234027614 
213.078704854776 0.0974231965265884 
213.114462238176 0.08391416880130353 
214.049307991 0.1210726555340823 
214.086511566915 0.08066283759229938 
218.081108537508 0.0838765760168545 
218.09506254719 0.04891358874059726 
219.06790803413 0.16854385359995375 
220.07399908239 0.07828353771546628 
221.082436621699 0.08780764944445545 
222.091403178489 0.14768305159629877 
224.1068682791 0.058695271676585635 
225.077461958457 0.0732721365919675 
226.086194159775 0.14430354111902804 
229.073327481907 0.07803449562407862 
231.089351482818 0.04877211051955249 
232.075038551876 0.08353149042455188 
233.082454294048 0.06531718002376025 
234.090887529691 0.16739662691667617 
235.098204414535 0.0726774025730442 
236.105878869749 0.0929560419082744 
238.086833863773 0.07879673985671894 
239.116966348474 0.05331275296811202 
240.10141717893 0.09552092078876938 
242.082608588938 0.056055853984774515 
243.089729604644 0.04733699586762327 
244.096700089249 0.265214385990584 
244.10648305213 0.06725248082060602 
246.090569335016 0.066237475640482 
247.099331746451 0.06770925336283626 
248.106110725393 0.05224968561518167 
249.079732712879 0.07343908089280034 
250.086202405721 0.07793861381255913 
251.082706870102 0.044482814236266204 
252.10034443557 0.06514413194824807 
256.099447588607 0.04462578808421916 
262.085676030619 0.11988347045267775 
263.11846314452 0.04616406057046443 
264.100344772584 0.11738282268453712 
264.125812110682 0.060279059727658464 
265.09783314837 0.10910214282913594 
265.107880466147 0.048953202642489785 
274.107980843232 0.053309640447249035 
276.103278166432 0.047080354374648074 
277.097891346058 0.05037028892682301 
279.076948555816 0.052571568779232934 
279.113079764803 0.08183532824362065 
292.119798019427 0.053239992740146146 
307.144587273205 0.05265799176111685 
335.137678075369 0.05827342404377902 
END IONS

BEGIN IONS
TITLE=Condylocarpine.mgf
PEPMASS=323.1753883
CHARGE=1+
RETENTION_TIME=167.991
PRECURSOR_MZ=323.1753883
SMILES=C/C=C1[C@@H]2CCN3[C@H]/1[C@@]4(C5=CC=CC=C5NC4=C2C(OC)=O)CC3
INCHI=InChI=1S/C20H22N2O2/c1-3-12-13-8-10-22-11-9-20(18(12)22)14-6-4-5-7-15(14)21-17(20)16(13)19(23)24-2/h3-7,13,18,21H,8-11H2,1-2H3/b12-3-/t13-,18+,20+/m0/s1
COMPOUND_NAME=Condylocarpine.mgf
IONMODE=positive
SKELETON=Condylocarpan
115.0542228335 0.037542536157900486 
122.060263972465 0.0336254233648416 
128.049554490466 0.0860235539665377 
128.062053385149 0.03986331767338651 
129.070125455357 0.11394355637769231 
130.064808426558 0.07697128842306722 
151.054137071594 0.0263219757905008 
152.062313786662 0.05622303933572691 
154.065386274167 0.04486115140167198 
156.044341550531 0.0679579780961674 
156.081011950497 0.06529406667595966 
165.069901741837 0.18387973612926803 
165.079014085975 0.03100029762689643 
166.064834260002 0.06149574468886687 
166.076175846309 0.03086968462851266 
167.073202309109 0.3205824822083162 
167.083129196152 0.06843926715969756 
168.081044273962 0.10909675888077218 
178.065224058791 0.05540170212445325 
178.077716119495 0.09923992118538388 
179.073319452978 0.12183974863713254 
179.084401896594 0.040164674324594155 
180.080838602088 0.340991888725215 
180.089341177327 0.07146368386749198 
180.111885465128 0.026348973187207317 
181.088283416763 0.09303504085776824 
190.065382849499 0.09510053384469903 
191.072925512645 0.5456702821427629 
191.082621197317 0.08853179521762554 
191.104965737422 0.02729725768838087 
192.080915180871 0.6369057351572713 
192.089967014564 0.11007757136452515 
192.112077440921 0.035242833408054015 
193.088597832847 0.9070548876741023 
193.097428869759 0.13421078012153725 
193.120350469832 0.04888834470469007 
194.096439320067 0.8556332483150173 
194.10564695422 0.12681113501335553 
194.123349295511 0.04586358892827945 
203.072876256166 0.08784484220123345 
204.080812054208 1.0 
204.089665987773 0.13110114416820817 
204.108632023767 0.04750566056217576 
205.088618672499 0.6054947952967416 
205.098598417233 0.08869839093104474 
205.121564414746 0.03926945782928272 
206.096362565107 0.9511202450335867 
206.105339316204 0.10898565739753535 
206.129595668591 0.05459935275568599 
207.091530425316 0.03860537310733782 
207.113155564755 0.034847946562786086 
208.112225196146 0.4085641197590352 
216.080243579847 0.039184313932329434 
217.088596514901 0.791198155466728 
217.098062494789 0.06931824603572276 
218.096532000499 0.42833257356847115 
219.06759741414 0.0689273752698421 
219.103134926047 0.221133091966711 
219.112992788896 0.04910617745344399 
219.126335598104 0.0255044399151575 
220.075477128765 0.20014109021862392 
220.099315806769 0.14137028930087817 
220.111777834829 0.4637772997328893 
220.121527310853 0.0926670007120441 
221.106772882759 0.04879849152140088 
222.091354701102 0.10254764855914675 
222.127555008872 0.07229847080054101 
230.0960208348 0.11483135103773834 
231.104583914666 0.06237427147340383 
232.075084223441 0.027457196354635633 
232.11192572976 0.2379238451888047 
232.121819273716 0.048344064227130765 
233.083463317974 0.2090534711207725 
233.092988803649 0.03342940403039562 
233.107322895765 0.16970877773298723 
234.090669690494 0.10005150075536953 
234.115501883099 0.2233619030037712 
234.127326594182 0.12320397237721008 
236.107356081485 0.07669053960886552 
246.091710906626 0.03382631775250251 
247.086844325332 0.049516450479028605 
247.123040543186 0.07408475961918827 
248.094365775518 0.043598346852124645 
248.106944841563 0.16136512792305402 
248.117284342218 0.0292493284557685 
249.138919805657 0.3108428492312561 
261.102458052718 0.0673967441877988 
275.117516502902 0.0328508851574597 
END IONS

BEGIN IONS
TITLE=Condylocarpine_N_oxyde.mgf
PEPMASS=339.1714352
CHARGE=1+
RETENTION_TIME=916.069
PRECURSOR_MZ=339.1714352
SMILES=C/C=C1C(CC2)C(C(OC)=O)=C3NC4=CC=CC=C4[C@@]35[C@@H]/1[N@+]2([O-])CC5
INCHI=InChI=1S/C20H22N2O3/c1-3-12-13-8-10-22(24)11-9-20(18(12)22)14-6-4-5-7-15(14)21-17(20)16(13)19(23)25-2/h3-7,13,18,21H,8-11H2,1-2H3/b12-3-/t13?,18-,20-,22-/m1/s1
COMPOUND_NAME=Condylocarpine_N_oxyde.mgf
IONMODE=positive
SKELETON=Condylocarpan
105.057178812842 0.04182124999379864 
106.064146785818 0.0452058265460178 
108.079497083854 0.03698546993561352 
115.052822693751 0.07447338937912927 
116.052358000117 0.029791635432975493 
117.057641194725 0.03308121316315101 
118.063075732749 0.03541993145709752 
120.079322255996 0.032394465214470945 
121.08708264884 0.04475195941876838 
127.052752561383 0.035613510766109656 
128.054859115028 0.09329500225850594 
129.067399073718 0.0712247587912026 
130.064615564381 0.08090714860388275 
132.078553775934 0.037729028414098066 
139.052080359353 0.035103474420680826 
140.051419800036 0.029186188858045428 
142.063063587713 0.03012971556135398 
143.071629841149 0.04920440452824088 
144.080514938961 0.07495889857995455 
151.053656899617 0.07785955106008206 
152.057405956903 0.13811432359834389 
153.063523319433 0.048683659488695546 
154.063735280389 0.10617381021265773 
155.069434117639 0.0730711433606157 
156.078211404645 0.09883467627617686 
157.084386689574 0.027876920924945606 
163.052817080542 0.02604477831369649 
164.058338393017 0.05711186156671462 
165.068197555163 0.287101541289639 
166.068613836808 0.1449399363262258 
167.072090469244 0.25534149057519967 
168.077575029725 0.12854958421831314 
169.07560506494 0.039200874894259205 
176.059932907189 0.027262048279149156 
177.060402958425 0.09068728398839686 
178.068238904036 0.184717592375797 
179.071652991982 0.14823652008339955 
180.079881429503 0.28561103627125445 
181.084496521859 0.10839653580400452 
182.090861394751 0.04848856765226583 
190.065014198391 0.18928131110232635 
191.071500192613 0.5547445988553434 
192.078812206849 0.6310894807590177 
193.085928666361 0.39195998505864915 
194.093164896396 0.2531098471221988 
195.097032215066 0.0506695474868873 
202.073721783607 0.025787963258409985 
203.073510908897 0.06881418939481115 
204.079325834687 0.6320693565212256 
205.084788406797 0.44523362074984335 
206.092351349721 0.7383811576352444 
207.095915809828 0.3301141909799399 
208.104580883522 0.1818178958129974 
209.106983588772 0.0796449989248955 
216.079003803122 0.0697812147240793 
217.08684573843 0.2604509291939935 
218.092214874089 0.4601222146353847 
219.095183625087 0.47783850877864864 
220.098448064769 0.3872430775552668 
221.105787137511 0.3175487182056149 
222.107224274323 0.09325338960419335 
230.093456310217 0.058956903011780894 
231.092482873826 0.12951796477214741 
232.099004313264 0.2072158932024961 
233.105101207745 0.42028175844743537 
234.112953579384 0.4880116471871286 
235.116397657224 0.2707131252168208 
236.118173734384 0.06081740853716455 
238.087275221573 0.046600606729198184 
245.105376913778 0.09564854332114478 
246.111684359277 0.08197047957888333 
247.119249673814 0.37466562556379457 
248.117577985286 0.3431990051683667 
249.131996846739 0.18854573876860667 
250.134896481456 0.039402512949352236 
252.100197619318 0.10703989551218596 
253.107561402041 0.0700638758478775 
260.108481642812 0.026842654676801324 
261.136049610998 0.2360711652620127 
262.143259775239 0.2876856188772134 
263.149607877498 0.17474652763030638 
264.150054707351 0.03290711520727736 
266.118233246761 0.043945056292035406 
275.116783261044 0.06204201123553767 
279.111932706347 0.1948670143543692 
280.123259771335 0.07022964885284476 
289.13205736031 0.1161080539906947 
290.138671461146 0.057412685119743165 
307.142896924616 1.0 
307.298679850074 0.026100342520908877 
308.14541462407 0.3105820169202207 
309.150821837404 0.037044216500512504 
321.157187200376 0.03550245495300093 
END IONS

BEGIN IONS
TITLE=Tubotaiwine.mgf
PEPMASS=325.1896575
CHARGE=1+
RETENTION_TIME=813.736
PRECURSOR_MZ=325.1896575
SMILES=CC[C@H]1[C@@H]2CCN3[C@H]1[C@@]4(C5=CC=CC=C5NC4=C2C(OC)=O)CC3
INCHI=InChI=1S/C20H24N2O2/c1-3-12-13-8-10-22-11-9-20(18(12)22)14-6-4-5-7-15(14)21-17(20)16(13)19(23)24-2/h4-7,12-13,18,21H,3,8-11H2,1-2H3/t12-,13-,18+,20+/m0/s1
COMPOUND_NAME=Tubotaiwine.mgf
IONMODE=positive
SKELETON=Condylocarpan
130.06623144385 0.03767635247808222 
152.062937119849 0.02774947158231972 
154.066735164443 0.042244149975135536 
166.069280280901 0.03496601856088587 
167.074643439418 0.19297553962769756 
168.081132867764 0.10512032339849531 
169.082373017214 0.03614203531136348 
179.074816793834 0.0412784690515676 
180.08149798592 0.23236987022352049 
181.088161886641 0.1148977501285237 
182.094767613812 0.05606728149250972 
191.07515177195 0.04569264920781271 
192.082197511896 0.11614387627502011 
193.089482965204 0.1981034254910064 
194.097270048863 0.24022559061704363 
195.099938916278 0.10055817101406542 
196.108038374168 0.033839631440603715 
204.08324523055 0.0427158338916062 
205.088302920826 0.03790636599121379 
206.095636011784 0.13180131036890316 
207.09980529367 0.1938949520165427 
208.109049083353 0.17190498488652864 
209.113462469572 0.06798695589402466 
210.126646688657 0.03540225055897309 
219.099342212968 0.02494332352759192 
220.110741670027 0.04677452472964188 
221.112983191635 0.06585093388801594 
222.123404880151 0.11417931597123818 
223.10488706904 0.032213564006334135 
235.122265328078 0.03435746930899697 
236.141148554748 0.0655568609507164 
237.141530233982 0.047954360906793 
238.134170588274 0.02698311889798846 
265.154576851018 0.031670357505975494 
293.168192461859 1.0 
293.316547640127 0.06899332898937206 
294.171085832228 0.32280984525974776 
295.174448692554 0.03816715644448043 
END IONS

BEGIN IONS
TITLE=Acetyl_splendoline.mgf
PEPMASS=413.2078519
CHARGE=1+
RETENTION_TIME=879.917
PRECURSOR_MZ=413.2078519
SMILES=C[C@H]1OC[C@@]2([H])[C@]3([H])N(C(C(O)C(C)=O)=O)C4=CC=CC=C4[C@]35[C@]6(O)C[C@@]2([H])[C@@]1([H])CN6CC5
INCHI=InChI=1S/C23H28N2O5/c1-12(26)19(27)21(28)25-18-6-4-3-5-17(18)22-7-8-24-10-15-13(2)30-11-16(20(22)25)14(15)9-23(22,24)29/h3-6,13-16,19-20,27,29H,7-11H2,1-2H3/t13-,14+,15+,16-,19?,20+,22+,23-/m1/s1
COMPOUND_NAME=Acetyl_splendoline.mgf
IONMODE=positive
SKELETON=Akuammicine
101.023000658646 0.025072761772239965 
115.05351994216 0.02509078776762278 
117.066185207753 0.051125581101166946 
118.065180857403 0.03616335346763227 
120.079952258271 0.031240650200815914 
130.064725726521 0.06278085449543025 
143.072401705908 0.07393592865500774 
144.080181948406 0.6395003320578097 
145.08345775403 0.09200733689636634 
156.079800570755 0.07263887922583093 
157.085057344253 0.026553296859681857 
158.094248791529 0.04888863729799816 
167.073060955557 0.05063745612093229 
168.079116843833 0.050196730021188456 
169.080226932113 0.0282029727080105 
170.09334202726 0.035778122134024856 
180.080220375928 0.054453122924638685 
181.084996630739 0.049522330097087376 
182.094908577291 0.11897656620600235 
183.094975894469 0.04855111476550394 
193.086202525879 0.028306511495525124 
194.095079408557 0.10570165396413775 
195.097961061636 0.05194270895923595 
196.106910842533 0.036007336896366336 
197.107694658404 0.0363439865911894 
199.122006599415 0.041943828468422886 
206.093235668065 0.039295594699724865 
207.095089124018 0.05587336896366339 
208.106322559215 0.06646595616836913 
209.108547087124 0.0537860851965466 
219.095750307193 0.03658445969450681 
220.105829160509 0.04513578318206255 
221.108070173193 0.06628266025742387 
222.116926848163 0.054182391448720786 
223.121516767183 0.037869909237532015 
234.122291639748 0.040524132696625664 
235.123519719662 0.04693294329717593 
237.103706311325 0.11779855159545873 
238.111720390026 0.03055262641915183 
249.133351065883 0.03507504506498846 
250.141316434443 0.027072869295721197 
251.153242074615 0.06120554694664938 
252.141232288647 0.07921235887543089 
263.150317276158 0.025121014515669966 
295.180473002023 0.18407836564308527 
296.183484474919 0.05343393314569432 
299.138942917876 0.02606048512064767 
335.175094763572 0.03507653774390437 
351.170488978561 0.17004927105404635 
352.173194331569 0.056184788589861166 
353.182063733583 0.025371031909174283 
395.197374706679 1.0 
396.200738049516 0.3625700009487366 
397.202550015284 0.06294978020935454 
413.207851935872 0.15280604661459157 
414.210651326455 0.05880125233231081 
END IONS

BEGIN IONS
TITLE=Akuammicine.mgf
PEPMASS=323.1747359
CHARGE=1+
RETENTION_TIME=981.339
PRECURSOR_MZ=323.1747359
SMILES=O=C(OC)C1=C2NC3=CC=CC=C3[C@]24[C@@H]5C[C@@]1([H])/C(CN5CC4)=C\C
INCHI=InChI=1S/C20H22N2O2/c1-3-12-11-22-9-8-20-14-6-4-5-7-15(14)21-18(20)17(19(23)24-2)13(12)10-16(20)22/h3-7,13,16,21H,8-11H2,1-2H3/b12-3-/t13-,16-,20+/m0/s1
COMPOUND_NAME=Akuammicine.mgf
IONMODE=positive
SKELETON=Akuammicine
115.053490036985 0.10819916634818882 
116.053621452702 0.03445212111489789 
117.059564375374 0.03803736911608897 
127.05329559133 0.0705840228444292 
128.054597189617 0.0622615806671626 
129.065699392653 0.0391889745327812 
130.064711509454 0.08535347895765738 
139.053231630535 0.05238263370434037 
140.050856970782 0.0523241805682903 
142.063898507565 0.036732710846752656 
143.069689551774 0.03533712256443082 
144.079306592569 0.04368816221767528 
152.05828345089 0.05428747199885086 
153.061392514609 0.029972015888768137 
154.064351193674 0.15925467795467496 
155.069425181147 0.05241382618501283 
156.078754003169 0.043086252189371385 
164.054567201511 0.025168085531354734 
165.067255995293 0.0423118398792982 
166.065123337501 0.10745445242517605 
167.071603629125 0.22897634666326955 
168.075634897104 0.10901271342603003 
169.075753254541 0.16700813258743985 
170.07979847032 0.048014480650439235 
171.090403777626 0.032043537363611534 
178.069671265448 0.05202255714383823 
179.072627794045 0.05217047241143039 
180.079807898525 0.21320089373010168 
181.079206398645 0.23784929680615208 
182.083989321703 0.28071056995215227 
183.089118471711 0.09773424635559114 
190.064888968051 0.07841496064767123 
191.072322732142 0.16886584140274946 
192.078909378096 0.12582514596246103 
193.085482921206 0.11138134983232076 
194.078803284453 0.028968692710028936 
194.092657712871 0.07535489965719726 
195.094669746862 0.047261824440330884 
203.074377229447 0.036971398854318535 
204.0802013071 0.33795008259454334 
205.085017713321 0.22642831417485926 
206.089878966619 0.2139016760584867 
207.09376066048 0.1336684296971289 
208.104544021425 0.06901603712901262 
209.104795763825 0.03980254897612648 
216.079684318326 0.08432703664618448 
217.08680027844 0.17944245144588944 
218.093295009866 0.2531005850031795 
219.096055641284 0.21496659783351182 
220.105161429602 0.17176679452962526 
221.10998208946 0.07142393936391454 
222.11780835978 0.030708787524685307 
228.080428867419 0.040488180671042 
229.088897091936 0.04883397789056 
230.095263023773 0.1555565341431845 
231.100058183964 0.1346563401207123 
232.103855639949 0.10761644362732378 
233.106429552879 0.22324558023518604 
234.116945482281 0.20793308662440213 
235.118163786601 0.07877574493672644 
236.12402205977 0.026398196393100745 
244.105296284713 0.036372791559262305 
245.107226218474 0.029960534958907183 
246.122603939705 0.0699168183040622 
247.122152922809 0.1169880540662675 
248.123013105043 0.07716104913680707 
249.128801512954 0.036207733533384606 
258.092135048796 0.11481771271568027 
259.097217014843 0.05395570458047162 
262.121354636285 0.03610621380427164 
263.152496420695 0.09830721814972494 
264.154547389178 0.032445946576454866 
291.148590696773 1.0 
291.299190794094 0.05038031235468629 
292.152227997506 0.3215839908655835 
293.155105447821 0.03819723713257748 
END IONS

BEGIN IONS
TITLE=C_fluorocurarine.mgf
PEPMASS=307.1804911
CHARGE=1+
RETENTION_TIME=677.454
PRECURSOR_MZ=307.1804911
SMILES=CC=C1C[N+]2(CCC34[C@@H]2C[C@@H]1C(=C3NC5=CC=CC=C45)C=O)C
INCHI=InChI=1S/C20H22N2O/c1-3-13-11-22(2)9-8-20-16-6-4-5-7-17(16)21-19(20)15(12-23)14(13)10-18(20)22/h3-7,12,14,18H,8-11H2,1-2H3/p+1/t14-,18-,20?,22?/m0/s1
COMPOUND_NAME=C_fluorocurarine.mgf
IONMODE=positive
SKELETON=Akuammicine
103.053777417558 0.051302778769097244 
105.069408720956 0.05436821947119294 
106.065719205304 0.028216095139948185 
112.111250613924 0.0430796848708891 
115.053818416891 0.13045538946779375 
116.054324337173 0.03365828485716906 
117.059045093037 0.07726436421907963 
118.064587485012 0.03397043101714002 
122.094992258287 0.030253211682376616 
127.05354963394 0.0796666802839276 
128.056977103843 0.13096534304321117 
129.067591199307 0.09385589186764332 
130.064801858081 0.30137855497224003 
131.070407208947 0.04020120659209032 
132.080458581914 0.026481250958668018 
136.111415297551 0.035827283287073186 
139.053123070365 0.05274083860231406 
140.054156366978 0.05122149913710244 
141.065311325601 0.04326599212408459 
142.065396277153 0.043298303571910314 
143.073144045539 0.08380249935831868 
144.080205255023 0.14026791061629923 
151.053645610158 0.038097671217144184 
152.061056229456 0.12004388868891214 
153.066864178511 0.05068397446224023 
154.065009269072 0.2074562211484284 
155.071480940749 0.08658018935186719 
156.079989392835 0.10904874696791131 
157.084853943691 0.029909455491982644 
158.093081341906 0.03486560919643002 
165.068866387139 0.08618832055237777 
166.066428246564 0.15264800485288346 
167.072973599018 1.0 
168.079484652889 0.8517704623111472 
169.082421490904 0.143042979929442 
170.08393568271 0.03727205668685875 
178.070535034702 0.09252073227976841 
179.075070094468 0.11042884351686061 
180.080578983833 0.836276845594906 
181.085388215986 0.2876988344909289 
182.091754407374 0.13589499704402666 
183.089752315939 0.31878002702383973 
184.089914893719 0.0683154574667424 
185.105546813299 0.03486841486604084 
190.067538938022 0.03628627233648303 
191.072997178311 0.24081856181684066 
192.080079865781 0.27320546982247973 
193.087393357414 0.2505657971917097 
194.095427850142 0.2970627568170449 
195.097144818974 0.11794826931036796 
196.102041855182 0.16513215551734156 
197.105002933016 0.061671454546996116 
198.113228276168 0.03390240123696115 
203.07520805957 0.041456982687322765 
204.080573217843 0.4666344220204983 
205.086886988074 0.3477073285785969 
206.094720423599 0.39997518061498116 
207.101278839168 0.24576016303715276 
208.109066979124 0.17283194578583028 
209.108679310283 0.08223918641747592 
210.113158163479 0.033108219455777174 
216.081092611721 0.07261268733047474 
217.088236060845 0.2613019540255578 
218.095007850846 0.2592735473915366 
219.100294671317 0.1687779073558645 
220.108434871434 0.33661861315134506 
221.111043388715 0.17561356679998735 
222.12476725491 0.25142530328594787 
223.12534268737 0.08387734290755242 
224.122615936983 0.027040272920740602 
230.095222175647 0.0682784287941864 
231.101886468324 0.08064966667257605 
232.109739571639 0.1026826517894237 
233.113334962699 0.11229492212339859 
234.110814636751 0.04268576577437637 
234.123947870453 0.06114731846585369 
235.11999876038 0.08770053022530915 
236.14033812255 0.16046973383907326 
237.14301334304 0.0383348196702105 
243.099076167221 0.030242096914302977 
246.125826748856 0.039937042007194536 
247.124516774292 0.035262665401546045 
248.141190045799 0.08360679619508037 
249.138878134377 0.05855810164077717 
250.127151139951 0.07229593956402669 
251.132335792962 0.031957617431532796 
259.122665368992 0.034558627318435016 
261.135081078374 0.0263219444215349 
264.141850211296 0.05832079132215638 
279.183631446587 0.0341692944126323 
307.180491054471 0.3166993609393752 
308.183322824036 0.08100060661043508 
END IONS

BEGIN IONS
TITLE=Desacetyl_isosplendine.mgf
PEPMASS=327.2069587
CHARGE=1+
RETENTION_TIME=973.323
PRECURSOR_MZ=327.2069587
SMILES=C[C@@H]([C@@H]1CN(C)CC2)OC[C@@]([C@@]1([H])C3)([H])[C@]4([H])NC5=CC=CC=C5[C@]42C3=O
INCHI=InChI=1S/C20H26N2O2/c1-12-14-10-22(2)8-7-20-16-5-3-4-6-17(16)21-19(20)15(11-24-12)13(14)9-18(20)23/h3-6,12-15,19,21H,7-11H2,1-2H3/t12-,13-,14-,15+,19-,20+/m0/s1
COMPOUND_NAME=Desacetyl_isosplendine.mgf
IONMODE=positive
SKELETON=Akuammicine
115.054109811706 0.049827678160762605 
117.063250927192 0.03997590190779408 
130.065674359456 0.028339911099885057 
143.07286919598 0.18076700882430494 
144.079310886832 0.07189141010532676 
156.080614873928 0.026049363542419556 
157.087972099903 0.04585190254608633 
158.09630908394 0.25066231353631824 
159.099517681898 0.04386395500551679 
167.072955979288 0.034269739912977215 
168.079464334638 0.02712618303798095 
170.095955639824 0.05171864453351333 
171.102864308979 0.03806899529558136 
180.080673138158 0.09619746782298826 
181.087887816282 0.15118045665202068 
182.093189594664 0.06082279966242191 
183.095029197688 0.0349854464248381 
184.1081162458 0.02959400175957033 
193.08769186568 0.037220459143749725 
194.095690851176 0.06701895335431961 
195.10285121952 0.09146249990400017 
196.111768198908 0.33788170601522177 
197.113603212141 0.09555473825324672 
206.092072328529 0.039168086753131943 
207.094226963643 0.1462138091284324 
208.109818158457 0.18056067317645114 
209.114604224326 0.06927419857203444 
210.125172569785 0.03203326799655595 
220.110245695575 0.036171381467508965 
221.113603771634 0.03779295096669701 
222.123985048629 0.11446696197638491 
223.125241551528 0.07427328124026669 
236.142373033776 0.06553562361920236 
237.144678203577 0.030868341984696346 
252.139250414384 0.029923968129761058 
266.157502405694 0.028935221017222797 
309.196624788484 1.0 
310.200011216826 0.3241561187735573 
311.202236632569 0.04163683560646723 
327.206958693331 0.04136165314277864 
END IONS

BEGIN IONS
TITLE=Echitamidine.mgf
PEPMASS=341.1868648
CHARGE=1+
RETENTION_TIME=650.962
PRECURSOR_MZ=341.1868648
SMILES=[H][C@]12C(C(OC)=O)=C3NC4=CC=CC=C4[C@]35[C@@H](N(C[C@@]2([H])[C@@H](O)C)CC5)C1
INCHI=InChI=1S/C20H24N2O3/c1-11(23)13-10-22-8-7-20-14-5-3-4-6-15(14)21-18(20)17(19(24)25-2)12(13)9-16(20)22/h3-6,11-13,16,21,23H,7-10H2,1-2H3/t11-,12-,13-,16-,20+/m0/s1
COMPOUND_NAME=Echitamidine.mgf
IONMODE=positive
SKELETON=Akuammicine
139.054640849614 0.02888744317676154 
154.065876671463 0.04136894442351547 
166.066269820425 0.0740507397108909 
167.073443828938 0.19082751477619517 
168.080406432317 0.2171808337062803 
169.083696572047 0.04635867150290867 
179.073135302526 0.02602450891420285 
180.081247134661 0.15203322805756153 
181.08336119152 0.08299690488592928 
182.092145978029 0.0562192398517229 
183.092657566301 0.09829515132820682 
184.098919257974 0.06854444788594108 
191.073734736879 0.043637471965182126 
192.080752997554 0.0721137654584249 
193.086307293398 0.061792933264134806 
194.092787340556 0.08916952504050316 
195.094034558621 0.06876327178087244 
196.100412942292 0.13946189098933603 
197.104238989264 0.030504733581907924 
204.08134182968 0.032126250541876226 
205.084110939548 0.0308247523637606 
206.089432305188 0.07348074493267975 
207.092898193421 0.1487594184388159 
208.096604455727 0.09889704463337588 
209.099561553734 0.04257289052648838 
220.095968240114 0.036998527245010356 
221.107594959003 0.04646553156821771 
222.10751245938 0.029698067682932473 
223.122591315223 0.08333611382159985 
224.126229753546 0.026232063059559975 
235.094117826456 0.03230054409317432 
236.098483153482 0.02638956203641472 
251.118937878264 0.1138251405688337 
252.12444301111 0.030437743485443588 
323.176342559833 1.0 
323.333011748882 0.047806832728271444 
324.180142438131 0.33182251276818286 
325.182123100842 0.045384458591086724 
END IONS

BEGIN IONS
TITLE=Geissoschizoline.mgf
PEPMASS=299.21138
CHARGE=1+
RETENTION_TIME=621.708
PRECURSOR_MZ=299.21138
SMILES=CC[C@H](C1)[C@]2([H])[C@H](CO)[C@]([C@@]34[C@@H](N1CC4)C2)([H])NC5=C3C=CC=C5
INCHI=InChI=1S/C19H26N2O/c1-2-12-10-21-8-7-19-15-5-3-4-6-16(15)20-18(19)14(11-22)13(12)9-17(19)21/h3-6,12-14,17-18,20,22H,2,7-11H2,1H3/t12-,13-,14+,17+,18+,19-/m1/s1
COMPOUND_NAME=Geissoschizoline.mgf
IONMODE=positive
SKELETON=Akuammicine
103.053981813285 0.06146586201478117 
105.069763004592 0.05889672443390452 
106.065346264783 0.25723887549482605 
107.072365021195 0.026132279720629144 
108.080554099002 0.1422534285257816 
110.096372461381 0.8318153517218073 
111.099661713987 0.08571008731818575 
115.054127842696 0.1189460936272386 
116.0579651349 0.041723589059486955 
117.0583944123 0.05815349749406472 
117.063445320911 0.06151433705306219 
118.064736117435 0.07296075119543928 
120.079987369078 0.0607220630786942 
122.09589350138 0.03009251874931377 
124.11166483545 0.04704761835884415 
127.053687776841 0.05223335605977427 
128.057461207776 0.09337950504573012 
129.066281344497 0.05416219315195574 
130.064927430176 0.30097107868630213 
131.071755189807 0.06458668668872687 
132.080180965436 0.08648011261093934 
138.126964586709 0.033944104789712486 
142.065869023324 0.052338537622560063 
143.072868099609 0.206280913274192 
144.080171728382 0.5411596665064639 
145.085730228966 0.0851395374982988 
146.097841487963 0.02803502852420366 
150.127749859716 0.035302635324778814 
152.061356259942 0.08814817201176339 
153.068327339794 0.04577292800934129 
154.066334066869 0.06904928306516352 
155.073009793817 0.03402948344794078 
156.080280256651 0.12837883771677508 
157.085692602082 0.05552416881384415 
158.094925459575 0.09165496923383404 
162.126892546018 0.08687386956776151 
165.069486820914 0.08295273667330928 
166.069806235157 0.0603861106161846 
167.073004105124 0.3655313746516247 
168.079652316081 0.300218279027659 
169.085020747021 0.10625053830106596 
170.094945450652 0.07351591628867797 
171.095757862674 0.031052841276301143 
178.075647120382 0.06684795222056175 
179.080141310723 0.06772422417256141 
180.080590551057 0.48706203660907477 
181.086856644234 0.29711207641869863 
182.095085134109 0.27323287676636715 
183.099579328561 0.08980380528721772 
184.110553919375 0.05697811752747719 
192.079977723951 0.07164206973225973 
193.087931031025 0.1778407996376042 
194.095912289682 0.5758599832082941 
195.101268133869 0.23136847143536213 
196.111179148592 0.2409503947760306 
197.114175575641 0.07202800283236763 
198.123884408206 0.027793396270452977 
200.107395874921 0.06692513884058333 
204.07953563669 0.029239547426049763 
206.095653679862 0.08154299603744669 
206.15291277258 0.0728342545541092 
207.102007584557 0.07742173020317701 
208.111155366449 0.12945169228705797 
209.116103785292 0.060464776536845434 
210.125939973261 0.08296128374366943 
220.110246835527 0.039169540345130704 
221.117569141534 0.025927544512156234 
222.125446783995 0.04167621199101374 
223.131744786631 0.0334298078421343 
224.141873570339 0.0568205950207398 
226.157029679977 0.028559226924060595 
236.142462753817 0.05651794325928722 
238.158269925257 0.08901122887805238 
239.161346245105 0.025302865438211586 
252.172384974033 0.02734501038469049 
256.168291336453 0.0530726060477755 
271.181429541652 0.03965924145408021 
281.20048728404 0.07017105317658445 
282.203102252186 0.024973961021414356 
299.211379961652 1.0 
300.214270546884 0.2785807129440121 
301.215987916046 0.034175520007048044 
END IONS

BEGIN IONS
TITLE=Holstiine.mgf
PEPMASS=383.1975621
CHARGE=1+
RETENTION_TIME=723.565
PRECURSOR_MZ=383.1975621
SMILES=O=C1C[C@]2([H])[C@]3([H])[C@]4([H])N(C([C@@H](O)OC3)=O)C5=CC=CC=C5[C@@]41CCN(C)C/C2=C/C
INCHI=InChI=1S/C22H26N2O4/c1-3-13-11-23(2)9-8-22-16-6-4-5-7-17(16)24-19(22)15(14(13)10-18(22)25)12-28-21(27)20(24)26/h3-7,14-15,19,21,27H,8-12H2,1-2H3/b13-3-/t14-,15+,19-,21-,22+/m0/s1
COMPOUND_NAME=Holstiine.mgf
IONMODE=positive
SKELETON=Akuammicine
103.053967883073 0.024666038678235486 
105.069856753493 0.03524435145927512 
109.065802866864 0.4446390233268564 
109.157021857081 0.028576463636821984 
110.070942914991 0.05049839478467336 
115.054481621982 0.08392550320988658 
116.05520279441 0.0339509697488276 
117.065699759799 0.09181969501815594 
118.065520118288 0.08397570359429675 
127.054400639843 0.03833669876613694 
128.056622221968 0.04571934720638851 
129.06731644875 0.03801358819942756 
130.065413807765 0.17283339457248245 
131.071826112819 0.03489496911624472 
132.08015686357 0.04378275130751327 
142.066560103927 0.03456568506295542 
143.073791228856 0.09115599080288334 
144.080964828047 0.43496130326581794 
145.084487936015 0.07337228699385663 
154.065464174246 0.0361588798640237 
156.080646368339 0.055462683232309906 
160.076540998314 0.04375703449208927 
167.073745512818 0.12450377246458136 
168.080605800262 0.12344111302667332 
169.085044897875 0.02949679555421914 
170.086675723819 0.03358147098007908 
172.07707478996 0.05823741517350146 
180.081240939014 0.179547986162975 
181.087046068366 0.08549176245787467 
182.09524076908 0.0598785034627021 
184.079512369253 0.027179456580838764 
191.074296245741 0.025022606495363902 
192.081640808683 0.04615091091571813 
193.088678419558 0.07938084499869603 
194.096241873515 0.12698876403679282 
195.102925426212 0.054386494355539876 
196.089884362529 0.06502585646244712 
197.091441749205 0.02835229933357539 
200.071849416212 0.06932197924446246 
204.081276475579 0.09071274752434846 
205.087700671331 0.05831641548943017 
206.096625162309 0.07050223235741224 
207.102633214008 0.03952217504047043 
208.111034849651 0.11410373271051971 
209.115419628529 0.04596744737211507 
210.122922834592 0.035845149224632576 
217.089539548081 0.05881109239881304 
218.096364364833 0.09290248539056371 
219.103078333177 0.07569840740731337 
220.108218275719 0.03996984349739985 
222.115965738435 0.02636404854493243 
231.104173467185 0.02555551404431925 
232.111328321689 0.04569892609625634 
233.116583118512 0.03331127393994308 
234.126961600284 0.06108008448463539 
235.127318599965 0.026335945034931706 
248.139969319343 0.025554846640364663 
252.138292868129 0.06583823941738537 
355.203715884197 0.03416240259620138 
383.197562073989 1.0 
383.363592588394 0.02930921151663559 
384.201674911499 0.48767134417695496 
385.203976068276 0.029723897885744074 
END IONS

BEGIN IONS
TITLE=Holstiline.mgf
PEPMASS=397.2140934
CHARGE=1+
RETENTION_TIME=1020.207
PRECURSOR_MZ=397.2140934
SMILES=O=C1C[C@]2([H])[C@]3([H])[C@]4([H])N(C([C@@H](OC)OC3)=O)C5=CC=CC=C5[C@@]41CCN(C)C/C2=C/C
INCHI=InChI=1S/C23H28N2O4/c1-4-14-12-24(2)10-9-23-17-7-5-6-8-18(17)25-20(23)16(15(14)11-19(23)26)13-29-22(28-3)21(25)27/h4-8,15-16,20,22H,9-13H2,1-3H3/b14-4-/t15-,16+,20-,22-,23+/m0/s1
COMPOUND_NAME=Holstiline.mgf
IONMODE=positive
SKELETON=Akuammicine
105.06981879669 0.03191414260209449 
107.083852885293 0.03654874011377698 
109.065180023883 0.17158584608652613 
109.096721992921 0.07637167519048826 
115.054310354309 0.09647103558621921 
116.053700567281 0.04407836895488123 
117.065469611811 0.05540099769464791 
118.066214345026 0.030458045784124956 
128.057671970962 0.03738032793083262 
129.068424140988 0.04582431909370129 
130.065820510263 0.18837295570060977 
131.071358568411 0.032837677987652934 
142.065691589301 0.09030658176624244 
143.073477310403 0.08785337601287203 
144.080000597426 0.2965351850526165 
145.083164013942 0.045167143449053385 
154.06604856838 0.04861131900290036 
155.073162317524 0.03226801833001275 
156.080593790734 0.09728049648587982 
157.086577579473 0.03181798038265931 
158.092647427259 0.03861174976501771 
167.073499834068 0.14056756472820614 
168.080450532864 0.13406556695267413 
169.085752545667 0.03592280247015732 
170.087772532384 0.04799315986945738 
172.077644495356 0.04563630227600447 
180.081168518405 0.15429012727316113 
181.088061144118 0.09879157280546069 
182.095394729661 0.07791615881672435 
184.078581896743 0.04790638764437891 
192.081903940411 0.043522344932610514 
193.08870397626 0.07745298107528761 
194.096666677499 0.13802944615458035 
195.102495804735 0.08033623617416301 
196.100472819636 0.0733349572135455 
197.101598288667 0.029350345647861573 
200.072219438543 0.037263185426976674 
204.081938916541 0.06311461464299892 
205.088820870978 0.04703572133595757 
206.09662168579 0.07634700708650168 
207.103274536571 0.05019593478323523 
208.111406695165 0.11282236268992657 
209.115419910039 0.047930683867400875 
210.124059022252 0.06564532658741262 
217.090326071483 0.03808135453922554 
218.096471005737 0.06384409014518543 
219.103138594434 0.053987199237396095 
220.109030549016 0.044919408746454344 
222.125665248789 0.06805592098025343 
224.138134360864 0.025299049627204823 
232.112284797634 0.030663618482359982 
234.126521544075 0.06962466983943108 
235.127214383777 0.026112275821632253 
250.124725085976 0.03897668895163347 
252.137692902468 0.054049520289050676 
294.149483882505 0.046373122427242265 
365.187034567977 0.03797335410908322 
397.212802480463 1.0 
397.381705721891 0.026083758749661817 
398.217051742284 0.45892993111834823 
399.218453705688 0.02960453558420485 
END IONS

BEGIN IONS
TITLE=Isoretuline.mgf
PEPMASS=339.2057155
CHARGE=1+
RETENTION_TIME=724.024
PRECURSOR_MZ=339.2057155
SMILES=C/C=C(CN1CC2)\[C@H]3[C@@H](CO)[C@]4([H])N(C(C)=O)C5=CC=CC=C5[C@]42[C@@H]1C3
INCHI=InChI=1S/C21H26N2O2/c1-3-14-11-22-9-8-21-17-6-4-5-7-18(17)23(13(2)25)20(21)16(12-24)15(14)10-19(21)22/h3-7,15-16,19-20,24H,8-12H2,1-2H3/b14-3-/t15-,16+,19-,20-,21+/m0/s1
COMPOUND_NAME=Isoretuline.mgf
IONMODE=positive
SKELETON=Akuammicine
103.053879341936 0.028798938214511054 
105.069574239376 0.028657688676539665 
106.065341938175 0.1096968538647517 
108.080660583955 0.1423568342474985 
110.096498370586 0.1407527727806958 
111.080463681614 0.04572642635346977 
115.053962562839 0.07099851109964914 
117.066647628779 0.12074468049766433 
118.065785412914 0.05613792138172079 
119.083310870483 0.029150467520911154 
120.081331311858 0.03533382217750625 
127.054082371538 0.05904122169998625 
128.056880960454 0.04461346060703639 
129.067503469584 0.0322994153580193 
130.065130943313 0.21210615728838095 
131.072695297189 0.03252023679783001 
132.080456520473 0.04896710444869605 
143.073080130248 0.13279695567160746 
144.080314946248 1.0 
144.18624750611 0.05411998858133243 
145.084606421938 0.1128787112053759 
154.06536974509 0.03757432598081283 
156.08028924998 0.07514389049240901 
157.087181133536 0.03131175376427361 
158.095063184302 0.05783648140269783 
167.073046149671 0.08411981362502167 
168.080098116216 0.10112200146476082 
169.082682902281 0.047122090493161975 
170.094981342828 0.05015175798980071 
171.093973426349 0.02913042505746429 
180.080495923798 0.11739087875239763 
181.086974259462 0.058478903258683095 
182.095059912513 0.0716199824910811 
186.092196652712 0.048279371122862964 
193.088350078304 0.04085347231803602 
194.095703899299 0.09248575933142772 
195.101417400808 0.04344703352716574 
196.110701856332 0.046274150337964656 
204.081150727978 0.027690578912715185 
206.095766413043 0.04121749217624169 
207.101934046138 0.031622511606358046 
208.110895146546 0.062136597471814874 
209.116384697688 0.029709065372314783 
210.125830142131 0.03714778692447401 
218.095479284823 0.027956468212320777 
220.111004976141 0.03718182589278102 
224.141163024535 0.029705876295258043 
234.126236613654 0.030170440666224776 
236.142207686344 0.039971891829163796 
250.156745458854 0.035489156805811564 
268.167856350477 0.03199180230025471 
321.195041304964 0.029962840608378456 
339.206122291997 0.24008944475289415 
340.209040830264 0.06689505478236432 
341.221637085505 0.23595493922704303 
END IONS

BEGIN IONS
TITLE=n-acetylisostrychnosplendine.mgf
PEPMASS=355.2009922
CHARGE=1+
RETENTION_TIME=126.998
PRECURSOR_MZ=355.2009922
SMILES=C[C@@H]1OC[C@@]2([H])[C@]3([H])N(C4=C([C@@]35CCN6C[C@]1([H])[C@]2([H])C[C@@]56O)C=CC=C4)C(C)=O
INCHI=InChI=1S/C21H26N2O3/c1-12-15-10-22-8-7-20-17-5-3-4-6-18(17)23(13(2)24)19(20)16(11-26-12)14(15)9-21(20,22)25/h3-6,12,14-16,19,25H,7-11H2,1-2H3/t12-,14-,15-,16+,19-,20-,21+/m0/s1
COMPOUND_NAME=n-acetylisostrychnosplendine.mgf
IONMODE=positive
SKELETON=Akuammicine
106.065082904042 0.034428677587005685 
108.080568422386 0.04125516621330899 
109.06453324767 0.033838204061412 
117.069549473052 0.028575891157461137 
118.064896352886 0.05185132773402201 
120.080670688793 0.08335341715480979 
130.065006463567 0.08619998348646578 
132.080563644547 0.04897902781154388 
143.073003956815 0.07734434847226873 
144.080869898905 1.0 
144.088447611167 0.12291211588831345 
144.108522190457 0.05229136754998784 
146.096357815736 0.04682937849479135 
156.080751162186 0.14930900033485778 
156.088807756907 0.02657789112993858 
157.088486074408 0.03099023866644037 
158.096326279727 0.09260714302096759 
167.07289581036 0.06350653431374798 
168.080571996249 0.06569560969344458 
170.096329755944 0.10756686834584846 
170.10478754551 0.03162339509089324 
171.092004663635 0.03163834901354569 
180.080725152064 0.055917602051347916 
181.088693515258 0.11918102044467278 
182.096396246143 0.3572659550556644 
182.105079039818 0.07351632775695748 
185.107207115027 0.0400268574285675 
186.09136520875 0.04736446287436411 
193.088514647752 0.034790759760186786 
194.096227944327 0.2874669155929047 
194.104785117086 0.0389932707348064 
195.09197436216 0.030559808809970505 
196.112060891911 0.04600872465057821 
197.107621454635 0.06146924583606647 
198.114969137578 0.02800468342178777 
198.127677146009 0.0513246606698073 
199.123010530065 0.18889123085462128 
199.132694526667 0.036340532011027375 
205.088621384005 0.07266893116149778 
206.096568617605 0.04418042412260382 
207.103853301086 0.032413521832268366 
208.099386408824 0.05180231464704614 
208.111951337575 0.10335582537854984 
209.107228736414 0.15417478199841286 
209.118742105228 0.04683807103571969 
210.127251310087 0.045233666509176484 
218.096211665082 0.02987220359352853 
219.104610785862 0.034440168254565307 
220.09909847073 0.03635842167309624 
220.111714193218 0.06310369582069972 
221.107339739341 0.09480101191268009 
221.118270027074 0.026704724246914033 
222.114769500616 0.047394095494098704 
222.127295406088 0.09001421998779832 
223.122625073251 0.0751209616381426 
231.104469950493 0.025256189135011903 
234.127495785973 0.1037942597120223 
235.122920075388 0.10408519607528335 
236.143073451823 0.03947177332422031 
237.102359141114 0.10367428429883993 
237.111648062564 0.04122321711169112 
237.138545552971 0.030677995256946006 
241.133312734764 0.09625956982243364 
249.13836307259 0.06773897606913666 
250.146715250911 0.055110250776365464 
251.117741457839 0.027700994940436596 
251.154278932943 0.2319140103576556 
251.165071988242 0.05048751622684092 
252.125652896188 0.0420558432682119 
252.137980294201 0.189053063489952 
252.148429760201 0.04071576996646835 
264.162903060285 0.04856235923358853 
265.13363530764 0.049222533634858234 
277.169666043036 0.04556235464649569 
293.164918609983 0.37823424448287407 
293.175881358499 0.2877306734310996 
293.197901710265 0.06936450415819966 
337.19088931758 0.2701332091760205 
337.201907620378 0.053630615175020525 
END IONS

BEGIN IONS
TITLE=Retuline.mgf
PEPMASS=339.2072235
CHARGE=1+
RETENTION_TIME=551.686
PRECURSOR_MZ=339.2072235
SMILES=[H][C@]1([C@@H](CO)[C@H](/C(C2)=C\C)C[C@@H]3N2CC4)[C@]34C5=CC=CC=C5N1C(C)=O
INCHI=InChI=1S/C21H26N2O2/c1-3-14-11-22-9-8-21-17-6-4-5-7-18(17)23(13(2)25)20(21)16(12-24)15(14)10-19(21)22/h3-7,15-16,19-20,24H,8-12H2,1-2H3/b14-3-/t15-,16-,19-,20-,21+/m0/s1
COMPOUND_NAME=Retuline.mgf
IONMODE=positive
SKELETON=Akuammicine
103.054572381874 0.04735905484451287 
105.070132816919 0.051305427490884035 
106.06568795077 0.16628499460200827 
107.076043731669 0.02977046689698777 
108.081237333811 0.3226477213036494 
109.096387353575 0.024823919497321892 
115.054407918736 0.10755555804637025 
116.058479997071 0.03611149463996491 
117.06684400443 0.16073716340248229 
118.066190618575 0.10471253083020042 
119.084944092016 0.07741963259011385 
120.082286398465 0.051039323567188565 
127.054250314396 0.07706498020396715 
128.057824261501 0.06744779181634906 
129.06805570492 0.051080999425810604 
130.065555218785 0.31571949192135385 
131.073949397156 0.06645837228769384 
132.080985882693 0.08022470318687852 
134.096856784423 0.026115718269157775 
136.112134946939 0.045998796596845165 
142.068413387598 0.03649445400294584 
143.073665502528 0.1663195376730911 
144.081352188659 1.0 
144.186798883996 0.035503531494059146 
145.085236554026 0.14508635003543466 
148.111646205346 0.05916239675926893 
154.065949986628 0.057836309658762346 
155.072424759026 0.026237510616390024 
156.080632064512 0.08271455552289192 
157.088080709746 0.04279730095319515 
158.094506703038 0.06031602324677355 
159.093740024988 0.048290372723812855 
167.073528854038 0.1363254527919004 
168.080544634241 0.1853756457083291 
169.082272083509 0.07164655814979566 
170.095200037935 0.041882332441904715 
171.094697013158 0.050971205446188966 
180.080930259549 0.17510606200328413 
181.087364706293 0.0916927989924428 
182.095580400805 0.08817954448999804 
183.09858433123 0.02977655014578908 
186.094302076078 0.05071285588151828 
191.075591618527 0.0266286166417104 
192.0813993022 0.03530342113964622 
193.088679603236 0.06223102385560792 
194.096642599394 0.13447530960119056 
195.10108244138 0.06507715892920554 
196.110639858852 0.04772638830793466 
198.126374358163 0.02739851953899775 
204.081566911111 0.0831439493327532 
205.088306137798 0.06539701350185732 
206.095798133081 0.09270753991686227 
207.10198672535 0.061945712354038965 
208.110999846394 0.07701382792761444 
209.115666409852 0.03612631045865352 
210.125651873164 0.04736842936527871 
217.089088224655 0.055905056484035036 
218.096276506179 0.08443641043486058 
219.10311319149 0.06061692498396396 
220.111420179071 0.09369746893034171 
221.117403116378 0.061166506263861165 
222.124457281617 0.03952230193395344 
232.11177837496 0.060960063013083064 
233.117067177204 0.0425125804540223 
234.127685272927 0.08630963328810806 
235.131168745663 0.03787055722864711 
236.143015832594 0.09946310489222612 
237.14639448405 0.024677050307041027 
246.126880218072 0.03234052233403149 
247.133142015254 0.04026715346243339 
250.157778794465 0.05329715651424748 
262.158869997005 0.0683282325411014 
263.15967532697 0.025650757323716973 
279.18510898283 0.03707147613547609 
321.196152717037 0.0763060006613113 
322.19895993622 0.025386604726898302 
339.207223457376 0.5270014219721444 
340.210056483384 0.174093766606021 
END IONS

BEGIN IONS
TITLE=Splendoline.mgf
PEPMASS=371.1953298
CHARGE=1+
RETENTION_TIME=717.397
PRECURSOR_MZ=371.1953298
SMILES=C[C@H]1OC[C@@]2([H])[C@]3([H])N(C(CO)=O)C4=CC=CC=C4[C@]35[C@]6(O)C[C@@]2([H])[C@@]1([H])CN6CC5
INCHI=InChI=1S/C21H26N2O4/c1-12-14-9-22-7-6-20-16-4-2-3-5-17(16)23(18(25)10-24)19(20)15(11-27-12)13(14)8-21(20,22)26/h2-5,12-15,19,24,26H,6-11H2,1H3/t12-,13+,14+,15-,19+,20+,21-/m1/s1
COMPOUND_NAME=Splendoline.mgf
IONMODE=positive
SKELETON=Akuammicine
106.064243419317 0.027473293953656462 
108.079583893377 0.025748963164370715 
115.052726866617 0.04148550724637682 
117.065091955797 0.06835062826789653 
118.064548097683 0.0457507485867199 
120.079054679375 0.03226082510891794 
127.052511589494 0.03143625038361485 
129.066782179159 0.02518098016101785 
130.06388456635 0.09174147156087502 
132.078447392988 0.028941481169171997 
143.071411733572 0.08217861680677573 
144.079104975731 0.5970029283794676 
145.082502462499 0.08717340753233122 
156.078763538721 0.06684506549416762 
157.084323396678 0.028444054615280923 
158.093426033087 0.038703170307781004 
167.071598859903 0.12016175639668789 
168.077531147872 0.07202895682576287 
169.079105677385 0.03449615237898566 
170.092208024671 0.037161683975941974 
171.092281101385 0.025984097551461756 
180.079051222026 0.06952431042543246 
181.084243519959 0.06571808037698944 
182.094348900399 0.28413508835331003 
183.094748738553 0.08995126298912685 
184.099917836971 0.026536413294441244 
193.085729030754 0.044496901682742646 
194.094088620636 0.12196349133962606 
195.096079995249 0.057646770321548114 
196.106914420192 0.0419479423903722 
197.10699061314 0.030663535365703255 
202.084132808504 0.039820905646523665 
204.079635921177 0.03078046618883315 
205.084276658487 0.027685178413168244 
206.091518748454 0.0536066248490637 
207.093558080054 0.07792809265266437 
208.104521169506 0.08948778814135383 
209.106865977195 0.06548905873107382 
210.114311991197 0.03315504206139559 
211.12059258736 0.03675722128051352 
218.093410270289 0.03324537080855971 
219.09614224147 0.049423788996062035 
220.105486569473 0.05964543950071274 
221.107131006392 0.07057516412978945 
222.117908631257 0.05264224581752267 
223.121752145949 0.03978051853254058 
233.108803545388 0.026982679252101637 
234.123317247628 0.058916714708151574 
235.122966569912 0.055148003625339524 
236.130595576089 0.028060475625041232 
237.103847546766 0.06009776442176696 
249.136132026641 0.03312299050356081 
251.151859694195 0.07353100611776044 
252.147665984911 0.029725812187909612 
269.126823863411 0.028685247965765784 
295.17891203244 0.19362027006484886 
296.181729362483 0.05776262558904598 
309.158182825042 0.12180188910591212 
310.160723046753 0.036755464539647856 
335.173687510817 0.030181973257384767 
353.184195707194 1.0 
353.347286969246 0.06268956668014697 
354.187599699849 0.35675534981371376 
355.190169726857 0.054923051164898457 
371.19532976679 0.16322571323679147 
372.198332175118 0.060312642511121256 
END IONS

BEGIN IONS
TITLE=valparicine.mgf
PEPMASS=277.1698756
CHARGE=1+
RETENTION_TIME=130.746
PRECURSOR_MZ=277.1698756
SMILES=C/C=C1CN2[C@@]3([H])C[C@]/1([H])C(C4=NC5=CC=CC=C5[C@@]43CC2)=C
INCHI=InChI=1S/C19H20N2/c1-3-13-11-21-9-8-19-15-6-4-5-7-16(15)20-18(19)12(2)14(13)10-17(19)21/h3-7,14,17H,2,8-11H2,1H3/b13-3-/t14-,17+,19-/m1/s1
COMPOUND_NAME=valparicine.mgf
IONMODE=positive
SKELETON=Akuammicine
103.05455456746 0.08137114375159081 
105.069962949307 0.06732836656587221 
106.065174564164 0.09280331040814914 
107.072489188547 0.03459211517817465 
108.081461838099 0.03338703931611954 
115.054295733137 0.35144833495757205 
115.061670145703 0.06128251946229726 
116.049703520575 0.03470465037053612 
117.057703798639 0.09709887237527234 
117.070247732052 0.0597759643061776 
118.064963942127 0.06192581090446174 
120.081275966847 0.04946808223431957 
127.054310649759 0.11483687733802159 
128.05007776207 0.07200810775753225 
128.062031813222 0.11671767918831011 
129.069969543031 0.07984910590274835 
130.065316036831 0.3106707145181072 
130.072706736798 0.05132483756671339 
131.073398175833 0.05001651863931617 
139.05443240395 0.0328315710312164 
140.049775942977 0.04545624406449691 
141.070209667866 0.04319076071253537 
142.065492270238 0.08292279083761116 
143.073112103506 0.1160624335503045 
144.081424605875 0.16339313821624563 
151.054356427639 0.048424275003763936 
152.049761267127 0.03669595319078457 
152.062359156477 0.08423385973232898 
153.069913836954 0.04147449229513152 
154.065307203622 0.20746444097622083 
154.074665286883 0.032598363756887315 
155.073340482583 0.07742628423787795 
156.080610561009 0.0661415610346457 
165.069548281725 0.07539611772421746 
166.065102937459 0.09371496852417541 
167.073215122531 0.5035597008487604 
167.082129925129 0.07849776693863718 
168.06855552305 0.07840690500470195 
168.080891471207 0.21130899574583825 
168.089402792615 0.0383241724262158 
169.076342887216 0.2986872610338044 
169.085854910336 0.06272145555895849 
171.091319261244 0.03789006685434252 
176.061851756811 0.04579568295312838 
177.070638282141 0.035890777827628784 
178.064805446688 0.05256121785128101 
178.077949271726 0.059604022285534256 
179.072911674398 0.11116338560405921 
179.084932213558 0.03902128286352214 
180.081046776859 0.5297064905883938 
180.089836862533 0.0917099535381092 
181.076007142831 0.04531276860054666 
181.088781346249 0.21934706232543513 
181.098105455111 0.039276828913482886 
182.084161043894 0.070060578389702 
182.096201819007 0.06843803488590963 
183.091687046315 0.03782151858218215 
190.065577113941 0.04235866329488025 
191.073085557062 0.38117899763314456 
191.082714090234 0.07851489458898098 
192.081015573312 0.3393843915621962 
192.090614348454 0.06790788136867004 
193.088594903958 0.3194064440398602 
193.097816622119 0.0679240923632403 
194.096568700369 0.3641500447466144 
194.105480005942 0.08282513560540906 
195.09195542808 0.09945755324985237 
195.102232196939 0.03511131905384549 
202.077558448968 0.062498808661417625 
203.073453203052 0.11409662129471726 
203.084054597445 0.031714632249632745 
204.081064090909 1.0 
204.089914566943 0.1863985611769157 
204.113169014201 0.04522778330910474 
205.076037495021 0.07856021254359294 
205.088556116733 0.26205782189277865 
205.097778965675 0.044560395121331954 
206.084029539312 0.3154888079469284 
206.096408206307 0.42061541254972074 
206.10632258121 0.08745005324765491 
207.091865376785 0.18583601078439238 
207.103798977291 0.11097033538676784 
208.100460439042 0.043079569111513186 
208.112140284215 0.0769892529016864 
209.107467092314 0.03987014378059731 
216.081046536142 0.159163336883177 
217.076092269206 0.05490224368452425 
217.088892184128 0.6855419903058002 
217.098914801855 0.11531975401981809 
218.083992448025 0.08573457591674054 
218.096696496313 0.8966046191163413 
218.106044006168 0.14882659898984535 
218.130757122361 0.038795371164596096 
219.091830629544 0.2617466612069142 
219.103124092927 0.14915759962258895 
219.114775725133 0.033239985127574 
220.100160802089 0.07719816251955271 
220.112161362744 0.15740787829222258 
221.107750970003 0.2280321874257179 
221.117570867047 0.051406357145915654 
228.080757965097 0.16896464734933914 
229.088464448066 0.15678166427268828 
229.098673009903 0.038186347580047596 
230.096701987011 0.5613463086585924 
230.106000985004 0.09670472294958231 
231.091892679785 0.17672018303983397 
231.103956618859 0.19374901035708011 
231.114741691462 0.036415167714730697 
232.09962129136 0.3085552487897946 
232.111946806526 0.46260025608599786 
232.122223370624 0.09022002375519717 
232.135698362667 0.03344136058839757 
233.107408544014 0.24397521714382367 
233.119058826642 0.0848188995836248 
234.128163150257 0.07363045035047015 
235.123314770583 0.058272786963798756 
242.09687622287 0.1408997867959126 
243.104426376978 0.11320107371783403 
244.112455636816 0.5671577806934965 
244.122785043217 0.09418209881775264 
245.107584599267 0.18708065352785022 
245.119118771247 0.05639639259538023 
246.115663791078 0.13246843721868556 
246.126962010505 0.0601199362459631 
247.123188257719 0.3228293371536532 
247.133477822378 0.06555527804743781 
258.128694625791 0.03330236794788774 
261.138971958434 0.11701252842417706 
END IONS

BEGIN IONS
TITLE=vincanidine.mgf
PEPMASS=309.1596505
CHARGE=1+
RETENTION_TIME=88.98
PRECURSOR_MZ=309.1596505
SMILES=C/C=C([C@@H](C(C=O)=C1N2)C[C@@H]34)/CN4CC[C@@]31C5=C2C(O)=CC=C5
INCHI=InChI=1S/C19H20N2O2/c1-2-11-9-21-7-6-19-14-4-3-5-15(23)17(14)20-18(19)13(10-22)12(11)8-16(19)21/h2-5,10,12,16,20,23H,6-9H2,1H3/b11-2-/t12-,16-,19+/m0/s1
COMPOUND_NAME=vincanidine.mgf
IONMODE=positive
SKELETON=Akuammicine
103.053747680911 0.09937851398120862 
104.048681301401 0.035608307983434166 
105.056462113513 0.04349219037275643 
105.069294341221 0.11670653802621106 
106.064919531273 0.056273642891851244 
108.080493514094 0.02703746594412337 
115.053910926604 0.19037181330835387 
115.060883705668 0.03971837116947034 
116.048681471593 0.06470492382036123 
117.056707973353 0.1347847213802529 
117.069449380655 0.05963704679970906 
118.06444739313 0.15066584943391195 
118.071539929033 0.030412019650891835 
119.072872437542 0.03290765692529834 
127.053320727765 0.14471171010774334 
127.061111002217 0.025906358665348114 
128.048916241482 0.06750158470708671 
128.06125124221 0.0891128920283444 
129.069747155997 0.10837510228944983 
130.064743138943 0.16385027706307173 
130.07257920484 0.0301875146773375 
131.048368669606 0.0708444075951508 
131.072697252821 0.07169741960748725 
132.080013636126 0.07673595505205877 
133.051916745433 0.13460804317571004 
133.059909902546 0.030533294672313804 
133.063965148833 0.03173562862702487 
134.05969206695 0.03905603748512094 
139.053796149572 0.11021052266463846 
140.04913334883 0.055191756106951304 
141.055920044315 0.026939559392222784 
141.069577139731 0.05384206456550942 
142.064746779361 0.15890580232810736 
142.072449794827 0.028124896191075697 
143.072046309957 0.04865553230701391 
144.043652984376 0.029454886960006282 
144.080491696012 0.06096334891336093 
145.051236142607 0.02673576118807395 
145.064028879838 0.03555463385747518 
146.059532168316 0.5597060728574389 
146.067037245794 0.10879845931575655 
146.07753913113 0.030579822028670284 
146.086469219675 0.02507446210865542 
146.095299982153 0.02555860859312068 
147.067336543093 0.12030140505280804 
147.075649560327 0.03534153018205505 
151.052700558647 0.0530880803724452 
152.048526903392 0.034924292970188016 
152.060870558157 0.061913020460614546 
153.069088613521 0.06169872216388256 
154.064544144706 0.41054460794571973 
154.072960762449 0.08892683499859003 
155.072149858486 0.11542923634461388 
155.078968235648 0.030975482702983715 
156.066421142668 0.026421879677951055 
156.080243450833 0.1176832981356677 
157.075088646442 0.034404003951471966 
157.086834471679 0.03170585740643731 
158.059409594144 0.06599973613539796 
159.055579884886 0.028848323228478766 
159.067088576422 0.25586629798277716 
159.076147956039 0.04151082709396944 
160.074987124537 0.3047209652791699 
160.084246939909 0.056903009219647166 
165.069451410184 0.11503941254811365 
165.07576980977 0.02965307882729685 
166.064675464599 0.5242132449341508 
166.073668530739 0.1153804035787082 
166.085553613149 0.034818327963999564 
167.072020448142 0.27834645128832053 
167.081743966388 0.07224932417443022 
168.080237076738 0.23319951129509212 
168.088400500783 0.05177916314262112 
169.075397369773 0.057545055299963656 
169.087344071307 0.0429541601796459 
170.059472054663 0.3106366461824042 
170.068362155889 0.05724450324868882 
170.082602411415 0.05625098700346325 
170.090266491364 0.031007307833896918 
171.054560259043 0.07683178673536507 
171.067009996742 0.15774660049023487 
171.07462218322 0.03721199278239145 
172.062478018205 0.17627161413144796 
172.07428687185 0.13937384867061178 
172.082600496112 0.03332746152507243 
173.082732939478 0.03432971736831632 
174.090638298554 0.09391290141764874 
177.068883920835 0.024699162392315108 
178.064416192693 0.08900743002060303 
178.076579841833 0.0833295625915025 
179.072142109592 0.05887555954647564 
179.084266922665 0.05563235130920541 
180.0802232463 0.3588258884498248 
180.088830505782 0.0654772674567445 
181.06409507076 0.03423850698324271 
181.087762263755 0.07289044809092704 
182.059872638844 0.10404373026582524 
182.095490420255 0.05587009142939898 
183.06731775701 0.6146890426923076 
183.075731802866 0.13777672380973538 
183.090726286409 0.05130920540601773 
183.099824874721 0.04272312670541362 
184.075175427138 0.5031561580685195 
184.084015876842 0.10642420185411515 
184.096994758295 0.03223809263827192 
184.106521096148 0.030380330748724718 
185.06998404195 0.24255915969079428 
185.07936225881 0.07585669280826444 
186.054218949321 0.06326148594334162 
186.090385383035 0.026062854057201195 
187.086283357952 0.09952781020778761 
189.069642690303 0.04601857342724175 
190.064215573674 0.0642972121415861 
190.075808481998 0.031596801055626074 
191.072195114361 0.16638842818539223 
191.082476538623 0.05687681138386086 
192.080414319417 0.28297005493057414 
192.090010816404 0.04929692868100289 
193.087636356556 0.10478229965231281 
193.098028788127 0.030861081993672074 
194.059355624582 0.0345476204872525 
194.070702019693 0.025458428069073846 
194.095479892524 0.37013842831638144 
194.105642736971 0.03378922457864187 
195.066564897863 0.030354698786191393 
195.103415324705 0.041495517078735916 
196.075068931143 1.0 
196.107820748691 0.028117927566756542 
197.082954300904 0.28817063970818546 
197.091268292949 0.06805376173152186 
198.089878613401 0.08416176304309031 
199.061959259827 0.1556550700723993 
199.072520096875 0.030243819066009432 
199.085547457905 0.06299547311876748 
199.095510142171 0.02995534945659925 
202.076578361971 0.03118936183434312 
203.07219503699 0.060101513469931644 
203.083790568359 0.027525940311060527 
204.080004378636 0.5340100828134547 
204.091152210964 0.08606094895058282 
205.087899525796 0.14253655619807787 
205.097803492936 0.031607112523791565 
206.095802229382 0.15740781007784635 
207.067430441708 0.15455612325683532 
207.077234576135 0.034476823455823584 
207.089831415305 0.0429328037039129 
207.101830404512 0.036287932239402534 
208.074925745799 0.3048604425568962 
208.084781368432 0.06074392631994914 
208.111023588459 0.049427110966592205 
209.082695344542 0.2940236553882189 
209.092990461003 0.0787218138794667 
209.106331068049 0.03689897056128234 
210.090249934418 0.38925959990874776 
210.099802860359 0.0722373989195803 
211.085572666057 0.11317926141594273 
212.069496839645 0.03452665173948914 
212.106339191907 0.06204353807850192 
215.079765621754 0.02514957654342192 
216.080194496283 0.09082697450730517 
217.087581233303 0.14680512676975552 
217.097668590758 0.03621665316779515 
218.095836165042 0.1247683456370596 
218.105282330009 0.028125420147791427 
219.090374351162 0.04056513761775535 
219.103135864517 0.04830587503234123 
220.074797837741 0.6258337068271456 
220.084571769967 0.10696712580295056 
220.098245728621 0.03602693892016503 
220.110837249671 0.057986960394007074 
221.082783260933 0.26501321995189453 
221.093442108809 0.06672339371375595 
221.108292292755 0.026212066450705684 
222.090414959388 0.5193362558241719 
222.100060130843 0.11288322587155747 
222.113167136535 0.03280311708137666 
222.125810261206 0.026684591575216136 
223.085843952664 0.1568733742278057 
223.098400039055 0.3537806044427548 
223.107931918583 0.061651702288213296 
223.121678315816 0.028928184711089742 
224.070594960171 0.041094910253026036 
224.105675560667 0.10319897581132864 
225.078186006186 0.024618326350212882 
228.079637536349 0.026111058075048 
230.095279268311 0.070018138333585 
231.102836033861 0.02493407314624376 
232.07369251188 0.036216527418183375 
233.083105635021 0.297312636484175 
233.105656381229 0.03644129437009557 
234.09056743925 0.3120865392061616 
234.099736752859 0.06656666778094794 
235.086167678626 0.12376664518793437 
235.097767124296 0.08746118135682364 
236.069695602444 0.10035310490986216 
236.093875272854 0.0633785797901721 
236.106128217413 0.19318147880076367 
236.116069392756 0.04548345643347065 
237.077351002634 0.03609641558067032 
237.101462838116 0.1223625459811315 
237.112189473484 0.0546132659762524 
238.085246401538 0.03777431360884305 
238.121097690056 0.03854706593146458 
246.090865150372 0.17187373104232911 
247.098147193912 0.08484906850451121 
248.105915874689 0.15557134178922627 
248.118309282691 0.024599222888357503 
249.101561121767 0.10397552158057202 
250.085937397897 0.06578292284643049 
250.121321263819 0.03019080512551226 
251.117002931986 0.1054671425171698 
251.127049447329 0.03369279558467963 
258.090514157643 0.02912836761390007 
260.106936978787 0.031446121583317554 
261.102268250173 0.07083107813630272 
262.121460159122 0.035571955866497085 
263.117142061189 0.033124564526474644 
265.132836642053 0.044628715363972296 
275.116859487762 0.04874804210474251 
END IONS

BEGIN IONS
TITLE=fluorocurarine.mgf
PEPMASS=307.1800217
CHARGE=1+
RETENTION_TIME=163.467
PRECURSOR_MZ=307.1800217
SMILES=O=C([H])C1=C2NC3=CC=CC=C3[C@]24[C@@H]5C[C@H]1/C(C[N@+]5(C)CC4)=C\C
INCHI=InChI=1S/C20H22N2O/c1-3-13-11-22(2)9-8-20-16-6-4-5-7-17(16)21-19(20)15(12-23)14(13)10-18(20)22/h3-7,12,14,18H,8-11H2,1-2H3/p+1/b13-3-/t14-,18-,20+,22-/m0/s1
COMPOUND_NAME=fluorocurarine.mgf
IONMODE=positive
SKELETON=Akuammicine
103.054041559553 0.03139569759023684 
105.069884675499 0.08530498635261954 
106.064992226022 0.03459489538507197 
108.080731605819 0.030034035262852594 
115.054331121992 0.07011435020931979 
117.057065881068 0.057657102258675194 
117.069993261348 0.03226707496391426 
118.065156580671 0.04027210223619186 
122.096203853745 0.029569336337106036 
127.054002904416 0.02806762085913295 
128.04953202493 0.0343310355371492 
128.061969274881 0.050444810173256534 
129.069830615969 0.1145233309501005 
130.065079961548 0.32537266117174113 
130.072726267145 0.03966295242077999 
132.0808584602 0.033202633247447016 
142.065048000563 0.04112248917427727 
143.07279960119 0.09635297926587436 
144.080613391433 0.17114853835880695 
144.088826019467 0.02561731576036369 
152.061879519602 0.061434256498806135 
154.064998864596 0.18207084946512161 
154.07363521422 0.024716773012811003 
155.073026732262 0.08795338756312195 
156.0807196705 0.12504723747341348 
158.096070992213 0.044762148866615406 
165.069569851653 0.039194399852509366 
166.065168324999 0.07370938948769487 
167.072912900264 0.9492290466619002 
167.081895193543 0.11540099016579207 
167.102680485859 0.034753866008354804 
168.080837675483 0.8830471205601047 
168.089410981568 0.1195223641669702 
168.107283541792 0.032908398422569665 
170.059683167416 0.038906338949668814 
170.09625679941 0.05186998340730348 
178.078058223209 0.027882025478107985 
179.073441664656 0.04477467657731792 
179.084386246658 0.028820798877632236 
180.080802051288 1.0 
180.090168816951 0.12856493410136383 
180.108126664214 0.032949187677337254 
181.088613836761 0.22504341530754945 
181.097712316862 0.04030842630189714 
182.096297018546 0.1064898577704632 
183.067801780314 0.15147301775733293 
183.091604389134 0.3042213798468436 
183.100513478625 0.05713283600210444 
191.072961990724 0.17383574579449337 
191.0827719925 0.029038028302014057 
192.080640096535 0.2245973011012334 
192.090117636468 0.04147587314006664 
193.088561671123 0.37632905700423136 
193.097862552622 0.055491283213497195 
194.096273217315 0.5249070314361901 
194.105393587423 0.12694914720734576 
196.075356721347 0.06116252298920351 
197.10729560846 0.05353797659035825 
204.080782082424 0.3979761856583343 
204.091036478792 0.06310858998052944 
205.088725784085 0.4252115456389088 
205.098590353212 0.06383543102789281 
206.096397557423 0.5801876908272516 
206.105986703057 0.07943733221816024 
207.104027024458 0.26838277417295076 
207.113549118168 0.04521379397176993 
208.075512148966 0.05244258882038968 
208.11206057061 0.16257739885874622 
208.120906225593 0.03698549825304536 
209.107137932085 0.058689491741873406 
216.080629180427 0.04659552941493882 
217.088346787068 0.2876027375700918 
217.097777209598 0.04194077891243643 
218.09657619788 0.44442566337061074 
218.106333201742 0.04954637636192763 
219.103784759268 0.09469420424755043 
220.075824479954 0.10875954979382788 
220.111813439788 0.2162334129243166 
220.122403223635 0.037969687976365525 
221.083167481843 0.05069118248818501 
221.107371150846 0.11091430704132886 
221.119262158229 0.12632163750578945 
222.091108476918 0.053448178175882585 
222.127320997914 0.10130340352628527 
230.096313821935 0.11843232742921124 
231.103980190063 0.16113014699600248 
232.111841739401 0.15460134810038356 
232.122251428026 0.05778377333207427 
234.091810423909 0.10253526510092766 
234.127426341237 0.06308660128514706 
235.123047072461 0.07308111535296578 
236.106860718133 0.03071703831608862 
236.143831150061 0.03197610921501706 
242.096894123814 0.027807102033841905 
245.107434191638 0.037771398508006315 
247.123125116839 0.05132948418747499 
249.138684417059 0.05691654638085859 
259.122740479253 0.062331296343761104 
263.154016371726 0.024927797038495958 
273.138438071637 0.03950205272790226 
END IONS

BEGIN IONS
TITLE=Wieland_Gumlich_aldehyde.mgf
PEPMASS=311.1757775
CHARGE=1+
RETENTION_TIME=577.244
PRECURSOR_MZ=311.1757775
SMILES=O[C@H](OCC=C1C2)[C@@]([C@H]1C[C@@H]3N2CC4)([H])[C@@]5([H])[C@]34C6=CC=CC=C6N5
INCHI=InChI=1S/C19H22N2O2/c22-18-16-12-9-15-19(6-7-21(15)10-11(12)5-8-23-18)13-3-1-2-4-14(13)20-17(16)19/h1-5,12,15-18,20,22H,6-10H2/t12-,15-,16+,17-,18+,19+/m0/s1
COMPOUND_NAME=Wieland_Gumlich_aldehyde.mgf
IONMODE=positive
SKELETON=Akuammicine
103.053504117053 0.03847121535475698 
106.064695747947 0.49399278369878247 
106.156552659479 0.026206771704144538 
107.069165278752 0.08299912213023591 
108.079496011962 0.03243285700343967 
115.05385193761 0.1383583973513836 
116.057472150419 0.03279436257540381 
117.062575407838 0.15644276767892523 
118.064807109325 0.2614454514653566 
119.068631298623 0.03108213675434009 
122.060512914078 0.03229566395863562 
124.075078683143 0.20412923329331437 
125.062604570795 0.060053576755371256 
127.053471284355 0.060788084908926183 
128.05655428197 0.07069691903159042 
129.066496376244 0.04759926557240607 
130.064735012327 0.289266143228572 
131.069481419226 0.04702603779213222 
132.080164158213 0.07452666615722293 
134.060176475657 0.03901639687631197 
142.065100554441 0.047876183536006006 
143.072071719807 0.15240995275062788 
144.080138242851 0.6772440689700888 
144.186487585937 0.024837142959733074 
145.083947298278 0.08935676130044413 
148.075392558417 0.03825838832870537 
154.065396342669 0.028949389680265742 
156.079991450204 0.08148107953582924 
158.091933409733 0.030863313790335054 
160.075282230676 0.09427661828178745 
167.072845394277 0.14629455637884936 
168.080372184209 0.1613944226959026 
169.08264299614 0.038253405140348674 
170.094455426024 0.028383757521967458 
180.080739878207 0.12001036687314481 
181.085956524985 0.046876772311794296 
182.095460947105 0.03745432269148333 
191.073626141184 0.029186027830358913 
192.080383087676 0.04619688358535454 
193.087752700038 0.05351126039449358 
194.096206453339 0.12993968615810678 
195.098154660542 0.03286380497388947 
204.080411501799 0.07819851641390892 
205.087312122933 0.06032416503399156 
206.094246023228 0.04417828950275836 
207.101449211668 0.026068784571588503 
210.092617764493 0.03182371113803593 
217.08812679212 0.03708196458690865 
218.094939930626 0.06114504461622314 
219.098603090793 0.0322864341270835 
220.110684563429 0.06712803548674587 
221.112837914105 0.025693837050431243 
222.097991566771 0.038980674435990535 
240.101967804317 0.036310709734917394 
265.133411944029 0.10960985432978072 
266.137350988264 0.027300898032687874 
311.175777514272 1.0 
312.178773459937 0.27880386446832484 
END IONS

BEGIN IONS
TITLE=Akuammiline.mgf
PEPMASS=395.1975935
CHARGE=1+
RETENTION_TIME=811.329
PRECURSOR_MZ=395.1975935
SMILES=[H][C@]1(C[C@@H]/2C3(COC(C)=O)C(OC)=O)C([C@@]43CCN1CC2=C\C)=NC5=C4C=CC=C5
INCHI=InChI=1S/C23H26N2O4/c1-4-15-12-25-10-9-22-16-7-5-6-8-18(16)24-20(22)19(25)11-17(15)23(22,21(27)28-3)13-29-14(2)26/h4-8,17,19H,9-13H2,1-3H3/b15-4-/t17-,19-,22+,23?/m0/s1
COMPOUND_NAME=Akuammiline.mgf
IONMODE=positive
SKELETON=Akuammiline
103.054284690755 0.07065420233004942 
105.069777743833 0.09326667461074892 
106.066266704157 0.08131920431785919 
107.074558972722 0.0704031228115753 
108.080476739705 0.08013995540578694 
115.054185213324 0.1739700694176809 
116.056827347231 0.04411509901654409 
117.064742199597 0.11206026194716613 
118.065727340923 0.05745559275914795 
120.080641353308 0.10659255052633124 
121.085039148375 0.0331874950125835 
122.096306319095 0.26980697669342246 
123.094912272074 0.03839133407979079 
127.054151621877 0.08966238723965686 
128.059284499273 0.1761036996163581 
129.068875400446 0.2247763758738938 
130.065910498515 0.32892776717970407 
131.071007227779 0.07399279235564582 
132.080029522892 0.060888491923337465 
134.095092019018 0.026727757374845815 
139.054184912063 0.043286284327291896 
140.053099465099 0.03664631979654561 
141.068948682664 0.08716363342282951 
142.066843733372 0.0680997325850151 
143.073651092388 0.1357569404261821 
144.080665538332 0.4064079758585782 
145.083833408888 0.06898224139775769 
152.061442598951 0.04401325731347599 
153.064243330246 0.03846512100590689 
154.065241206624 0.2521199427596668 
155.071401993342 0.12264594835702425 
156.080237817515 0.2529878874216193 
157.082224491859 0.10941277129309263 
158.09017027579 0.11635593496301529 
165.069158757075 0.03664639136485417 
166.066149318044 0.18560364110926586 
167.072627714014 0.7085609652847185 
168.079873002869 1.0 
169.081468984454 0.2983827709316727 
170.09386965488 0.12087141214650177 
171.093068708137 0.07551914756419052 
172.081348638779 0.04065006568181517 
178.071787079827 0.052397180494916325 
179.074262404075 0.07510075923240127 
180.081652227595 0.3406748104244967 
181.084320146712 0.1702777709191482 
182.089586881511 0.16603720550088333 
183.091807680798 0.14086491374408533 
184.095995164191 0.14817128657990442 
185.10116292958 0.040664075178214035 
186.090335606859 0.029091658606285917 
190.070572022373 0.026602351806187294 
191.073813283124 0.12329052832798898 
192.080432839882 0.14537457600250203 
193.087350804365 0.1928774861488485 
194.060182026862 0.09324355804708695 
194.08892361812 0.25369104605313303 
195.092610195639 0.10709864582024975 
196.081752445515 0.11841835469468424 
197.099554533259 0.04112910815510141 
202.07805358109 0.034165440164778876 
203.07795422849 0.04127965209213848 
204.081297933363 0.3717696302029713 
205.087164346836 0.2416639918011346 
206.094491019075 0.28724727888344853 
207.099252680845 0.1757706386004388 
208.104920832565 0.17009920798931344 
209.107790142964 0.05847365194828617 
212.074570803479 0.035583172573020246 
214.086048796192 0.028706460077587204 
215.082658342665 0.027348970293068646 
216.081134451957 0.11254082524700908 
217.088074705524 0.5907330491355801 
218.094696309488 0.4725474703644581 
219.099495377273 0.24171194256786374 
220.108731388938 0.23917162545584542 
221.110688810048 0.19511274334566814 
222.119522449468 0.12833018969538024 
223.122133353142 0.062082412338662664 
226.086352583282 0.07102678694436601 
228.084196940989 0.04092656984190203 
228.101995533744 0.15637512600495324 
229.08816067255 0.040433142138597035 
229.103845500577 0.03930220183479673 
230.096231407185 0.3602467746847148 
231.102695336172 0.376890521600568 
232.110148424146 0.47814876403320344 
233.11375202703 0.2319786526049254 
234.122533333354 0.19066459404845104 
235.123315893554 0.10683584699125043 
236.130682545969 0.05260395923039735 
238.087723683638 0.09005032325615765 
239.091284217995 0.030622397373729352 
241.090644450472 0.035522661568140365 
242.096029007728 0.06532018050958782 
243.10175657784 0.09620564509347358 
244.108970786741 0.14554224265735993 
245.110684485053 0.18079729242775092 
246.12472418833 0.38107852009620213 
247.128508422642 0.2688789146522872 
248.130452998202 0.14805403979842072 
249.134679068586 0.10494488703479257 
250.125947654967 0.10467401887900411 
251.128034808045 0.030448343247333275 
252.10958335196 0.05408934158229658 
255.109950504592 0.026287522816871373 
257.11077615124 0.025029441412930176 
258.122810453683 0.1003562312558127 
259.123301581403 0.13460084386192614 
260.126966494286 0.1350360149620706 
261.135129809686 0.10553248074007357 
262.129796934179 0.05737659923858477 
263.135860047935 0.04778800250345943 
264.13044145167 0.08517448174703968 
265.126503133433 0.033926312553832785 
266.120028733357 0.0402637936284882 
273.123422291132 0.03283804485400602 
274.122748855228 0.08652824997951357 
275.152934967484 0.22578620470754862 
276.15576448261 0.0905689430040726 
277.156045184916 0.038926808164369504 
278.124444087172 0.059772545180178584 
279.123026651068 0.042049709200070284 
280.131990287598 0.05628775899228959 
281.135861147052 0.025690893612635813 
287.119699820622 0.025259855582310177 
288.124172095387 0.03407025431440602 
290.120247760567 0.031898818156736744 
291.143432505241 0.05056027250349164 
292.134765775256 0.09145481552731709 
293.149236149248 0.045371981651317055 
294.15103897972 0.027116641671434908 
303.149082861543 0.14628798443246155 
304.147109152663 0.060029224918796815 
305.136201635932 0.03658226616039245 
306.147782507914 0.1409605290043095 
307.154851747008 0.07263548149189865 
308.162424225628 0.029482081621508855 
321.159315006421 0.061388128177409254 
322.163309694737 0.02650408851854675 
335.175115994943 0.30639466415318767 
336.178392754246 0.10221163965499781 
352.154650577021 0.034296642766430026 
353.180106589212 0.027646855485335117 
366.170265521343 0.20251576918218536 
367.173586184031 0.06845884446524697 
395.196298609256 0.35593836250994354 
396.199924629279 0.12484663806081374 
END IONS

BEGIN IONS
TITLE=Akuammine.mgf
PEPMASS=383.1963052
CHARGE=1+
RETENTION_TIME=754.523
PRECURSOR_MZ=383.1963052
SMILES=OC1=CC2=C(N(C)[C@]3(OC[C@]45C(OC)=O)[C@@]24CCN6[C@@]3([H])C[C@H]5/C(C6)=C\C)C=C1
INCHI=InChI=1S/C22H26N2O4/c1-4-13-11-24-8-7-21-16-9-14(25)5-6-17(16)23(2)22(21)18(24)10-15(13)20(21,12-28-22)19(26)27-3/h4-6,9,15,18,25H,7-8,10-12H2,1-3H3/b13-4-/t15-,18-,20-,21-,22+/m0/s1
COMPOUND_NAME=Akuammine.mgf
IONMODE=positive
SKELETON=Akuammiline
103.054222768663 0.05831115928784588 
105.069630334295 0.11017381866997927 
106.066341611761 0.08502622247365554 
107.06940934041 0.02974106543552252 
107.075460899168 0.030216927177085108 
107.084485593541 0.03908030129800256 
108.080809744584 0.05458693504976138 
115.054111383641 0.098162712525995 
116.054687880534 0.04278254270300494 
117.060795378237 0.09778734279373193 
118.065091530616 0.047088118588615085 
119.072333998954 0.02537636535547705 
120.080779747273 0.05067463692720346 
122.095969862294 0.1367570903537957 
124.111449037848 0.024598684722392558 
127.054176252891 0.05149543925445624 
128.059535571228 0.04621002506860569 
129.067430674928 0.03913074181182326 
130.065426006807 0.06386347961741695 
131.062996715416 0.06766459761657034 
132.078908242625 0.0757529482974843 
133.05650476568 0.025925362545314044 
133.064243322068 0.03182858401279673 
134.060183376581 0.03333297068911632 
134.094400846327 0.038881565673549 
136.110254144809 0.025802492091059306 
141.067101359251 0.028015689966887292 
142.066133906927 0.027262596611716178 
143.072547200326 0.03249050201827991 
144.076202958227 0.056961140364411286 
145.060789382795 0.025160842600541463 
146.060818655749 0.10355635293326425 
147.067668820133 0.10545107006418145 
148.074053942322 0.03822880608292817 
152.060629043893 0.0323737371739334 
153.066691746573 0.02701860298897957 
154.065244431858 0.09842124488506816 
155.07169436925 0.055547869695998654 
156.079095128886 0.039025950820169346 
158.062187929631 0.05881050718760838 
159.067833957914 0.15686920675863325 
160.075285235853 0.551344684756679 
161.079547010138 0.11201328200928634 
162.085506565114 0.03980614358864805 
165.069156343652 0.0316791877824504 
166.06775642366 0.030134864087541 
167.073684773806 0.11243658671350713 
168.079633799088 0.10631139401755726 
169.079847663213 0.04297378807599441 
170.062693559817 0.06100814432976097 
170.093166609995 0.043301677789953835 
171.070201600785 0.04365675922665791 
172.076618734445 0.18195943923335695 
173.082870605565 0.24506019234649273 
174.055415552447 0.029456079829201173 
174.089870247856 0.32334294670184976 
175.065495379827 0.0269880683459072 
175.077977428412 0.030339830598995938 
175.09315843224 0.025905298429816478 
178.069358633443 0.03208717571365085 
179.075671813742 0.029286560141576306 
180.08015188943 0.07318536130573018 
181.085445103576 0.07331413297042538 
182.061011522803 0.04945287537302903 
182.086933875748 0.05568247004229091 
183.0677790714 0.3356052663852548 
184.074379248809 0.359327670808723 
185.08024448577 0.13316915440599536 
186.089760341207 0.15220876702284925 
187.093137715101 0.06777253372261542 
188.102719626981 0.17354391753338638 
189.104935107949 0.03322962368079924 
190.08591778126 0.1407240884113414 
191.074134195799 0.034598599006486715 
191.08716817678 0.027891204097484044 
192.080367010518 0.06355163855844309 
193.087569226092 0.06137515346443911 
194.09438236132 0.08740661911411952 
195.075172203096 0.059441349880459286 
196.075804751277 0.2744946387997664 
197.082463750215 0.36665723791702437 
198.089613153589 0.3816947089549385 
199.090539222999 0.15759805569951432 
200.090464367212 0.030201340069284828 
200.09904569309 0.17287038831942758 
201.107588420953 0.09080479323345453 
204.080430290651 0.0849641114095783 
205.086345138124 0.05383193616406816 
206.091866636065 0.05072351477412541 
207.071464817759 0.09129034087237693 
208.077836662283 0.10387732603297557 
208.098153738041 0.04699881580179318 
209.084679486981 0.16733867936844524 
210.090874535146 0.33230032479734783 
211.095704985167 0.15061128627925716 
212.100859139301 0.08775957084024007 
213.100616605057 0.04967679828673685 
214.09046099654 0.1015682714002946 
216.067778085651 0.05600283653713015 
216.099130696874 0.11231177116754296 
217.086226012894 0.02720870768106826 
218.093049920967 0.07777670083434544 
219.094649612808 0.030243703507363 
220.07765961594 0.22997036867070456 
221.082908658726 0.3761723628182863 
222.090318341615 0.37526786220574726 
223.097396636243 0.34539435250864087 
224.087439856162 0.06643055231373605 
224.102588965729 0.2030168042736632 
225.103302767985 0.0829918543515328 
226.096719605573 0.024841807999008335 
226.105698954065 0.02950015758539612 
232.079853671231 0.04440686571218709 
232.095699113356 0.08291662216033095 
233.083917439924 0.07610174609893726 
234.091057134054 0.17427441485707204 
235.096904183969 0.1729199716741899 
236.105825092275 0.48374654993479 
237.111962746429 0.29634507377502084 
238.120068292782 0.3631101818627781 
239.122797771524 0.10202368660154895 
244.086886086712 0.03485814017583629 
246.092425614466 0.05648111810464989 
247.098024190691 0.19784253065002988 
248.102375400001 0.1705151130329057 
249.104424732825 0.1347106560695433 
250.107754280485 0.11398573687326838 
250.119464794435 0.06392717312898662 
251.118492644337 0.11483155505796375 
252.130853230671 0.21685405482389342 
253.132029079902 0.06366211317400725 
255.089792647235 0.036835428098201416 
258.10118722617 0.056292470582960476 
259.094054907274 0.03070110336151409 
260.124367353281 0.03844618162013612 
261.108433568356 0.028642075432634556 
262.12145591955 0.1333355751339476 
263.120800086629 0.15961567625234235 
264.108887084406 0.22889595275866756 
265.119555763101 0.11723206196864382 
266.1157956818 0.22811178409086416 
267.119264464055 0.062274662773845836 
268.103153885294 0.04827598939232698 
268.129033382095 0.050284425156167795 
276.120358807338 0.06507527175238917 
277.127865306124 0.040589910051047125 
278.121706882085 0.07890749143829971 
279.135803133271 0.17148007632671738 
280.133545973177 0.274746182015748 
281.106636295902 0.07774168918357578 
281.134568906866 0.08569704833981477 
282.11424249924 0.1111633098999234 
283.117993756586 0.06422081604179772 
290.117386651731 0.04331318350192993 
293.160611896148 0.0307099980351277 
294.150642995176 0.029602640841123594 
296.127100470344 1.0 
297.131197278558 0.27006220337351433 
298.137888653196 0.062230103689871946 
308.128458914627 0.0866192855513313 
309.133443800608 0.026741002137622823 
310.142751355456 0.05019615755374717 
312.157516907152 0.03552857043012242 
321.158848034191 0.06203994624953351 
322.153218383587 0.03927416430288573 
340.153942692779 0.30578410932602246 
341.157082318066 0.10219360190104693 
353.184833817487 0.0420396561341599 
383.196119801482 0.4832186058901334 
384.199144836776 0.17470530212219398 
385.2013874568 0.03059598928683048 
END IONS

BEGIN IONS
TITLE=Burnamine.mgf
PEPMASS=369.1793615
CHARGE=1+
RETENTION_TIME=855.14
PRECURSOR_MZ=369.1793615
SMILES=C/C=C1[C@@H]2C[C@@]3([H])[C@@]([C@@]4(C(CO)2C(OC)=O)C[C@H]5N3C\1)(O5)NC6=C4C=CC=C6
INCHI=InChI=1S/C21H24N2O4/c1-3-12-10-23-16-8-14(12)19(11-24,18(25)26-2)20-9-17(23)27-21(16,20)22-15-7-5-4-6-13(15)20/h3-7,14,16-17,22,24H,8-11H2,1-2H3/b12-3-/t14-,16-,17-,19?,20-,21-/m0/s1
COMPOUND_NAME=Burnamine.mgf
IONMODE=positive
SKELETON=Akuammiline
106.064147730902 1.0 
107.071069603304 0.46224719146328214 
108.079372676747 0.5440407524477888 
109.0825620051 0.055475489926549576 
115.052902884181 0.05014651194290258 
117.05872675631 0.031874803030282714 
118.063062237331 0.026914428308387188 
127.052487964768 0.03113823686790322 
128.056637844774 0.055892328138473564 
129.067522201634 0.09270695733920901 
130.063990964608 0.13174762932277284 
131.069144381655 0.02993053925782481 
132.078057656154 0.031499189322933774 
142.063577071054 0.037360176645795135 
143.070593061751 0.04090838075134811 
144.078376678506 0.08667190578175689 
154.062996729615 0.10779084799905587 
155.069048596854 0.04544649598416464 
156.078343510366 0.15696729665684556 
157.082292943185 0.03215466766263496 
158.057630397824 0.03066435957852839 
158.089015953543 0.02542403976005568 
166.06366514588 0.049622052830127945 
167.07043887415 0.13214351330945331 
168.077623206066 0.13629127647105366 
169.081004640147 0.0319292471364794 
170.059388741208 0.04706218409410023 
180.077905612296 0.0574020381588176 
181.08372581035 0.026407000789890476 
184.072761011467 0.08869108845298139 
186.088264302521 0.025259845803723615 
191.070577047102 0.07881916738302178 
192.077786833594 0.0939906634677667 
193.084590447066 0.062641298531662 
194.087539177491 0.04235251242837008 
196.073335608811 0.026242035718069448 
202.080106614334 0.03327616797175169 
204.07834286319 0.08325096925864287 
205.083459382799 0.042862018606010945 
206.091754413896 0.07032462621014841 
207.096353923063 0.027432259180632797 
214.083196131794 0.03528875928188361 
217.085955473935 0.08290577773367147 
218.091253973477 0.08656643059357116 
219.092674547468 0.06449445668543717 
220.076411716039 0.1446674681797517 
221.082577184664 0.036321182341321194 
230.091579089851 0.04587982936220032 
231.095048779066 0.05475577096126586 
232.101032027464 0.0605368908355271 
233.105006084927 0.039631279394587174 
234.112692793199 0.02537855735691114 
238.084986054396 0.03499405905805896 
244.10241192829 0.04838008751825532 
245.104906233674 0.05241429554241604 
246.106419834528 0.05949595197895056 
247.114449499328 0.03783511673347432 
252.09888494823 0.0915710371704487 
261.132859051461 0.0312610923286749 
270.10864896346 0.06887764475849334 
278.11426406807 0.03009242322036603 
289.129415435037 0.04267742026330577 
321.154945353318 0.03141603289913943 
369.176345628063 0.02972007166680301 
END IONS

BEGIN IONS
TITLE=desformodeacetylakuammiline.mgf
PEPMASS=323.1747803
CHARGE=1+
RETENTION_TIME=219.972
PRECURSOR_MZ=323.1747803
SMILES=C/C=C1[C@H]2C[C@@]3(C4=NC5=CC=CC=C5[C@]4(CCN3C\1)[C@H]2C(OC)=O)[H]
INCHI=InChI=1S/C20H22N2O2/c1-3-12-11-22-9-8-20-14-6-4-5-7-15(14)21-18(20)16(22)10-13(12)17(20)19(23)24-2/h3-7,13,16-17H,8-11H2,1-2H3/b12-3-/t13-,16-,17-,20-/m1/s1
COMPOUND_NAME=desformodeacetylakuammiline.mgf
IONMODE=positive
SKELETON=Akuammiline
103.053979721747 0.04496612223290866 
105.069884627542 0.04392837723592185 
106.065097660747 0.08328651332305231 
107.073218408383 0.051180905767875706 
108.080794777586 0.052017531825276485 
115.054221158192 0.14325228000640708 
115.061880419836 0.025503339651820018 
116.049102358748 0.03047565347494022 
117.057613630738 0.042038979723619474 
118.06561173438 0.029052435298959713 
120.080587124308 0.06921261216870143 
122.09654079315 0.09473614272549204 
127.054338572481 0.07985255108600635 
128.049376384911 0.0624510077854578 
128.062055398486 0.1429048470382722 
128.069965068589 0.030365246359926764 
129.069815964732 0.5709240912476629 
129.076940354702 0.09830679401326378 
130.065036354589 0.19473212034670032 
132.080328418764 0.03453118816041534 
134.096408328697 0.025922076466857395 
139.054376574649 0.053233238352519835 
140.049491469744 0.026273093661808446 
142.065082997412 0.1110762664567368 
143.07266901721 0.10986035881055385 
143.079655652449 0.02528665554287389 
144.080625651785 0.13976401565567287 
144.088371927855 0.03076345467748782 
152.062296867649 0.025406630173156225 
154.065111868334 0.27456305114670115 
154.073316348826 0.05044581604368878 
155.072727250944 0.10155342832372391 
155.079590915901 0.024613136945477374 
156.044127226021 0.025891219075269478 
156.080665582875 0.6840073810650827 
156.088340580361 0.1155877952408076 
156.10835928285 0.02936848652969988 
158.095955054962 0.03419967950260413 
160.075384670201 0.0271835303700373 
165.069615104318 0.038970687632837266 
166.065012396453 0.3020154990874228 
166.073937489836 0.06376116838611388 
167.072873314992 1.0 
167.080976557648 0.11595361622627605 
167.101107993002 0.028488519340818308 
168.080820447773 0.3001826590940597 
168.088688720628 0.06774549978415627 
169.085594391227 0.06937539640183851 
170.059430538441 0.09888666301300593 
170.095595936389 0.03719242988311398 
171.091451443345 0.03344590726549352 
178.065024512583 0.0437041870808376 
178.077332197228 0.044120237521467646 
179.072770899478 0.06374227038861208 
180.080842278357 0.5919190410074334 
180.089016140163 0.12281838025988875 
180.1112177219 0.028453021847981375 
181.075613176688 0.1460469713283403 
181.088271610645 0.29129040066484174 
181.096578034539 0.06629823352925669 
182.083596875481 0.2416875028282351 
182.095508009481 0.16197846447126188 
182.104228410291 0.037729187601591996 
183.091547076328 0.1613881085553842 
191.07293741883 0.16138085390792056 
191.083296307396 0.044190054524781086 
192.080702664095 0.2533882435923865 
192.090371957456 0.05173214405000391 
193.088482364852 0.2420732920512767 
193.098009892931 0.059697014317513654 
194.059933574644 0.10323607556613185 
194.069155291134 0.025323309469613444 
194.096487051746 0.32004933160275273 
195.091741011826 0.045924640733337116 
204.080728508457 0.6819624324186492 
204.089552457691 0.12823178383161746 
204.108711657781 0.030750101816463166 
205.088484957492 0.34960232321106494 
205.096308117932 0.08417179579819438 
206.096052891336 0.5676821975979215 
206.10445232696 0.1008794643915326 
207.103720815735 0.11450706825330355 
208.07518577519 0.07232897886886398 
208.111264817401 0.11307071988369578 
209.107537345019 0.04617321655984617 
216.080333883662 0.036701735584620435 
217.088621651238 0.2502631425839905 
217.097728707345 0.05533796242092614 
218.096263228613 0.45203248645499855 
218.105799593066 0.11438668420232279 
218.129868913345 0.024892211022610796 
219.09159721361 0.15894652462880984 
219.103860371681 0.4217436868405723 
219.113574011921 0.05624411816886952 
220.076031128353 0.058556892597458284 
220.111996594248 0.6503960247405027 
220.122493101712 0.177871529531084 
230.096146747998 0.1599686398110631 
230.105452467225 0.03943660838766538 
231.104028790603 0.14165259432657837 
231.114164686645 0.032366257700880106 
232.098941140471 0.045721603981005755 
232.111967417855 0.21442489680084412 
232.121935213647 0.0577443577158922 
233.083529726394 0.04115847382329259 
233.107117456419 0.17245245153213126 
233.117323230892 0.06510345773736882 
234.091305146668 0.027986713220912632 
234.114843025327 0.056859800705496504 
234.127451495015 0.3674479658614966 
234.137524953433 0.1093235867264373 
235.086440665668 0.025682816756942735 
235.122377348354 0.0697073791257216 
238.085568504449 0.03761926891828896 
244.112339146941 0.03321574818759512 
246.091452302578 0.03016795586301214 
246.12754366984 0.056605550451763416 
247.099274206297 0.03049427134249047 
247.122833403167 0.1736205216019698 
247.132755747519 0.037094822552041315 
248.106800219399 0.04310962921568642 
249.13916778158 0.04957110667851353 
250.086411250871 0.025179200566580785 
261.138801587926 0.02511302525263771 
263.15421567392 0.03549270189647977 
END IONS

BEGIN IONS
TITLE=desformodeacetylpicraline.mgf
PEPMASS=339.1695878
CHARGE=1+
RETENTION_TIME=253.695
PRECURSOR_MZ=339.1695878
SMILES=C/C=C1[C@@H]([C@H]2C(OC)=O)C[C@@]3([H])[C@@]4(O5)NC6=CC=CC=C6[C@]42CC5N3C\1
INCHI=InChI=1S/C20H22N2O3/c1-3-11-10-22-15-8-12(11)17(18(23)24-2)19-9-16(22)25-20(15,19)21-14-7-5-4-6-13(14)19/h3-7,12,15-17,21H,8-10H2,1-2H3/b11-3-/t12?,15-,16?,17+,19?,20+/m1/s1
COMPOUND_NAME=desformodeacetylpicraline.mgf
IONMODE=positive
SKELETON=Akuammiline
106.065007362008 1.0 
106.071793855788 0.16409000162160295 
106.085032211836 0.04252843786469451 
107.072903029865 0.20623067700593614 
107.079811770597 0.038288624056612555 
108.080587357439 0.29254787051633435 
108.087330636653 0.05432196394724739 
115.054287241837 0.028851001273357064 
117.057179614095 0.027208782707864244 
118.065215330642 0.03532202110210516 
120.080503907021 0.12002221064356369 
128.048993384363 0.03989026267309283 
129.070014133638 0.07490177339560998 
130.065041694621 0.1167995406344455 
132.080521672627 0.034495242854978195 
142.064805838954 0.08089512482355099 
143.072826349706 0.030718124204151837 
144.080999895093 0.1786262098885879 
144.089116951387 0.04172533236214381 
154.065056304843 0.11176120700426136 
154.072723266761 0.0266859420316824 
155.073021135199 0.05862473449574795 
156.080624870893 0.17590982558464102 
156.088864327179 0.04091446443239909 
160.076039850622 0.028003049145202578 
166.06524411692 0.027048350351303 
167.072165496056 0.0637613146680632 
168.080591941356 0.027894355226745285 
170.060251263333 0.059163226298678 
174.090820931489 0.043425715964282206 
180.081051294853 0.13145245114588844 
191.072880013624 0.09368412238051312 
191.08248145162 0.024610270329185398 
192.080599408281 0.0718959595503109 
193.088137319401 0.06931920589306459 
194.096432575743 0.038247671936433164 
204.080530016886 0.09519247895239133 
205.088385440889 0.058687425399618784 
206.096261673393 0.37873580100539384 
206.105007142807 0.12147414340818405 
217.088523615339 0.2525541575506884 
217.097645138041 0.03442749441078659 
218.096088139045 0.14324954608409474 
219.10385109482 0.07806888356625045 
220.075787511304 0.14263440031262378 
220.085734582531 0.0325531207881522 
220.098754607577 0.02470894220979289 
220.111151351986 0.03414589375576533 
228.080459778318 0.024907409130422067 
230.096000198001 0.05259944280659594 
231.103133500248 0.0298810780203684 
232.099254669966 0.03339507165624145 
232.111473044993 0.06857991445379895 
233.107355181327 0.05145806029704576 
234.11456308672 0.02898846535219355 
234.126449127645 0.028505094757437444 
244.112658457773 0.1079739666268798 
245.107261059988 0.046218787466338444 
246.090863144993 0.04893879379324829 
247.122755225857 0.03136388770000877 
END IONS

BEGIN IONS
TITLE=iodomethylate-de-desacetyl-desformo-akuammiline.mgf
PEPMASS=337.1901911
CHARGE=1+
RETENTION_TIME=211.584
PRECURSOR_MZ=337.1901911
SMILES=C/C=C1[C@@H]2C[C@@]3([H])C4=NC5=CC=CC=C5[C@]4([C@@H]2C(OC)=O)CC[N+]3(C)C\1
INCHI=InChI=1S/C21H25N2O2/c1-4-13-12-23(2)10-9-21-15-7-5-6-8-16(15)22-19(21)17(23)11-14(13)18(21)20(24)25-3/h4-8,14,17-18H,9-12H2,1-3H3/q+1/b13-4-/t14?,17-,18-,21?,23?/m0/s1
COMPOUND_NAME=iodomethylate-de-desacetyl-desformo-akuammiline.mgf
IONMODE=positive
SKELETON=Akuammiline
103.053919957318 0.03448537953765658 
105.069844226456 0.06599189303042766 
107.072791610951 0.06639580062578361 
108.080701460965 0.06137218114704313 
115.05407139043 0.06635993864238778 
120.080688080391 0.09292476287964523 
121.088538118132 0.0396894496326248 
122.096300841916 0.13471694148513036 
122.103682213827 0.02626592100957887 
127.053936776543 0.02953090244319768 
128.049327921921 0.038068395926703066 
128.061650305431 0.037908077651600425 
129.069681879628 0.10238652293856133 
130.064930319856 0.16112532982718406 
130.072305510217 0.03142454324500919 
132.080809008922 0.02525239972102899 
134.096488495396 0.03603504948533451 
136.111944009856 0.03680864369858724 
142.064965830295 0.08071844040396764 
143.072927646718 0.10015349409187833 
144.080738550731 0.11060506090233313 
152.062033978713 0.02590427932322514 
154.065050789139 0.2576013096027865 
154.073365990334 0.04405722708020016 
155.072825802249 0.09362849426698566 
156.080798632177 0.1757535369181308 
156.08824393457 0.03391941259992375 
157.088795092733 0.04160986684837806 
165.069613313472 0.05032937190497775 
166.065022451784 0.15949987342240793 
166.074188360939 0.03465576398332177 
167.072903641596 0.5082105330567638 
167.081716374192 0.07853127967444043 
168.080451602299 0.2842156241776209 
168.088657396644 0.055186789501964706 
169.07584963195 0.07148754186316211 
169.087165796464 0.03689429620357279 
170.059835683309 0.057375931445976386 
170.095644275004 0.05114068924250565 
171.091753793962 0.03667069913857195 
178.064511710227 0.0352289353373618 
178.077411450731 0.0506337584939568 
179.072933096603 0.0666284432357035 
179.084521072628 0.031540414273949935 
180.08065995764 0.6354273169452875 
180.089612665011 0.0906409829225315 
180.110916332787 0.03042208874039786 
181.08809758586 0.25929274645357603 
181.096489371791 0.04966908715042321 
182.083406221004 0.12170276379420585 
182.095790059729 0.17009292696422906 
182.104730796843 0.03988899195206662 
183.091544496601 0.7362749365360967 
183.099744454597 0.15905768235928625 
183.122499243835 0.03742654247053444 
191.072797108886 0.22663912978655917 
191.082187040035 0.0507772264398076 
192.080601469349 0.32484973288625923 
192.089534701509 0.06314941058869086 
193.088448060328 0.37242249498942853 
193.097793061747 0.07573300433165531 
194.059978605449 0.07625350339758272 
194.096200503837 0.31885045532911677 
194.104630514997 0.06381537882722109 
195.091401837183 0.16133645924951995 
195.10210519598 0.0684380925507336 
196.099352144173 0.2023470387347444 
196.109537003616 0.05602422284860619 
197.107142144813 0.13339545141171538 
197.115842774472 0.03215461077640594 
198.11493656577 0.05931405951848483 
202.085023786726 0.030847709646013004 
204.080732466164 0.6861071837036102 
204.089802299767 0.09694070465195165 
204.113267731383 0.03539713844586732 
205.08839123041 0.5090314362704338 
205.097458391192 0.08597446234541774 
205.121147672623 0.02933362150998562 
206.096234336928 0.9521356591590645 
206.105238660994 0.10601991020495563 
206.129158133522 0.04137172086489018 
207.091322068059 0.07227726596403596 
207.112741153053 0.039894775497379895 
208.075440804101 0.09868789568005186 
208.111542255138 0.20713977668310674 
208.120975105597 0.03810441800823905 
209.10701590793 0.04704027568899736 
211.122538323066 0.03205462948787607 
216.080822306582 0.0267168574336068 
217.088423393067 0.23563964710367458 
217.098200747648 0.047297773535177064 
218.096265713582 0.6392990903423799 
218.105450706286 0.09048718864664039 
218.12501732382 0.03041638524415467 
219.10388956049 0.323782278536743 
219.113602874635 0.0616495511748702 
220.0753986256 0.11514732531041529 
220.084860696961 0.025113354486300102 
220.111827798883 1.0 
220.120480387254 0.11053621870206437 
220.145507144327 0.04306173684468579 
221.107215177158 0.10534747800401646 
221.128704736432 0.03434925609398561 
222.09139249028 0.02661641586292397 
222.126932430052 0.10260401626196858 
222.136957562965 0.026259497071704958 
223.122929924001 0.10605369091252938 
223.13201302228 0.026469165598511885 
230.095979841434 0.10009926084689914 
230.104334914574 0.026078165915706327 
231.103836776058 0.16003013847488512 
231.113375363298 0.032074321559115736 
232.07533172005 0.026305805458746213 
232.111874527629 0.31283156574980464 
232.121167306543 0.05315272261896543 
233.08318027693 0.12288368770056045 
233.09267479975 0.02974619441717773 
233.107127096187 0.10989992865626629 
233.118652014882 0.0974306249731085 
234.091062352708 0.04084239638898645 
234.114242153045 0.04873941726278209 
234.127475696511 0.5651076109655219 
234.137529655306 0.08511027259710204 
234.162512523856 0.029459578721756436 
235.122741463897 0.09077352417031641 
236.142945196215 0.08524175319470835 
238.086005309803 0.026929407726936614 
244.111919957998 0.02976914848802316 
246.091365717756 0.059517724365035767 
246.12729305319 0.08020542592609269 
247.098544290753 0.03651484359912626 
247.122785983333 0.15785210333934702 
247.132539864723 0.03645816885750965 
248.106639149952 0.12386743073504058 
248.130390530022 0.06487977129980678 
248.142863657018 0.07056849848957411 
249.1384648347 0.0806353294569571 
250.085838777078 0.027187125708059038 
261.138293310001 0.09521230514305269 
262.122087163425 0.02509694442693371 
262.146139865437 0.03293873144237418 
263.153927921359 0.07837404328853587 
264.101323410372 0.0254693527132132 
277.169555909994 0.058540025035346666 
294.14861918897 0.0462377237246432 
337.190933097114 0.02513300653300473 
END IONS

BEGIN IONS
TITLE=Picraline.mgf
PEPMASS=411.189768
CHARGE=1+
RETENTION_TIME=1027.958
PRECURSOR_MZ=411.189768
SMILES=C/C=C1[C@@H]2C[C@@]3([H])[C@@]([C@@]4(C(COC(C)=O)2C(OC)=O)C[C@H]5N3C\1)(O5)NC6=C4C=CC=C6
INCHI=InChI=1S/C23H26N2O5/c1-4-14-11-25-18-9-16(14)21(20(27)28-3,12-29-13(2)26)22-10-19(25)30-23(18,22)24-17-8-6-5-7-15(17)22/h4-8,16,18-19,24H,9-12H2,1-3H3/b14-4-/t16-,18-,19-,21?,22-,23-/m0/s1
COMPOUND_NAME=Picraline.mgf
IONMODE=positive
SKELETON=Akuammiline
106.054495561992 1.0 
106.147653760409 0.02682078785690854 
107.061655033529 0.4748146737813472 
108.069739410862 0.553099443980133 
109.073064916445 0.053406548934858473 
115.042414898574 0.033267725296843395 
117.048231812433 0.026713865714525914 
120.068314262974 0.02893988210334749 
127.041191278247 0.02636950594511014 
128.045718945092 0.04483027629555266 
129.056254683568 0.09305607756254605 
130.052783080035 0.11327557188613213 
131.057726630941 0.032359824638620055 
132.066727000132 0.03342403891644536 
142.050930704406 0.03714490474471385 
143.057728609801 0.030226079853882 
144.06576988802 0.07077462815244141 
154.049474467784 0.10736915894783172 
155.055505646727 0.041354575171479294 
156.06468413537 0.15510588774431988 
157.068884469189 0.031099198362106905 
158.045145275177 0.04066041577032571 
166.048749750114 0.03866858133335971 
167.05580511198 0.13670374015261286 
168.063043969417 0.19125406135175635 
169.066420409952 0.03944306112591962 
180.062393005041 0.04566894234240471 
184.056803271834 0.09044315096607008 
190.066406951447 0.03219271371653042 
191.053843826902 0.03235164423959791 
192.060946877567 0.05189154727817313 
193.067944159912 0.04125589524473611 
194.068275314484 0.04697712620315742 
195.050576970854 0.033637759567976024 
196.055933341889 0.04868689141540272 
204.060310911904 0.07146116350412851 
205.06554258353 0.0366988772453856 
206.073141571421 0.033492469911791806 
214.064299296871 0.06702606847962442 
217.066867538411 0.061921107984563975 
218.072272433705 0.062181541393231156 
219.074722546442 0.0440799874058945 
220.065304345104 0.048637170249557805 
228.077765052331 0.03151854168830248 
230.072259584205 0.056978683981913275 
231.075485486508 0.05907344308667679 
232.081410164048 0.05497957578964546 
233.084371614488 0.03228927127274645 
243.0721989038 0.026662763977561392 
244.080692160025 0.05392758059650563 
245.0837191756 0.062344386968727385 
246.090346917183 0.06400286499415626 
247.095905826851 0.03765493304848236 
250.062308622807 0.04530331765663919 
252.076399102349 0.04008696361721172 
257.082242403138 0.02755117179579746 
258.086380868202 0.024562152899693882 
259.092177727923 0.026618915390359574 
261.110491845185 0.04066490777784921 
273.106722966931 0.031730036941610494 
282.083978207709 0.04581895066704251 
289.103747816652 0.05379399488652942 
291.117847872067 0.038721537568843105 
301.102957069492 0.02645493651021293 
319.111687448335 0.033616680101478155 
321.126540589887 0.026460129106065777 
351.13521660795 0.0351713886320065 
END IONS

BEGIN IONS
TITLE=picrinine.mgf
PEPMASS=339.1704795
CHARGE=1+
RETENTION_TIME=132.838
PRECURSOR_MZ=339.1704795
SMILES=[H][C@](N1[C@@H]2C3)(C[C@H]4/C(C1)=C\C)[C@]5(O2)[C@]3(C4(C(OC)=O)[H])C6=CC=CC=C6N5
INCHI=InChI=1S/C20H22N2O3/c1-3-11-10-22-15-8-12(11)17(18(23)24-2)19-9-16(22)25-20(15,19)21-14-7-5-4-6-13(14)19/h3-7,12,15-17,21H,8-10H2,1-2H3/b11-3-/t12?,15-,16-,17?,19?,20+/m1/s1
COMPOUND_NAME=picrinine.mgf
IONMODE=positive
SKELETON=Akuammiline
101.037785079475 0.027548419139667383 
103.053575667285 0.04249185579519982 
106.064524764854 1.0 
106.071173329674 0.10661039061244092 
106.078804459375 0.057906322165888084 
106.08824160855 0.05491067420263698 
108.080134450663 0.11311388399864071 
115.053629638527 0.16875529829503658 
115.060652742824 0.028393860651730857 
116.048778684876 0.047027998233575424 
117.056663422211 0.07320539257043442 
118.064378176248 0.054180110902873044 
120.080031913163 0.048023373681511425 
127.053503635691 0.08498076923319772 
128.048766933584 0.19148519710194234 
128.060749592433 0.089100902773279 
129.069075888594 0.07330462451417957 
130.064350440202 0.1815345996582067 
130.071801550608 0.02649352725614078 
139.053389931092 0.029613082553577107 
140.048657750981 0.041186573102233275 
142.064376822348 0.06426499601392682 
143.07208944293 0.09741698922099641 
144.04364245737 0.03775820920816369 
144.080064417206 0.1223659052275585 
151.053667875254 0.0302043195571664 
152.061288481882 0.05533849041416645 
154.064327997104 0.1765357494505811 
154.072612804084 0.026785148950834982 
156.079983222201 0.08219875155657642 
164.06134062823 0.035233894035488364 
165.069059666426 0.06784432935155373 
166.064239266402 0.06690096922256483 
167.072116792359 0.18012226820128907 
167.081263098703 0.02525268597433886 
170.059589925936 0.025548272905777263 
178.064230561078 0.03936940865313157 
178.076324326826 0.03422145796703828 
179.071911237863 0.04166895551749434 
180.079948307647 0.2058512245699202 
180.088478884763 0.03472191125421322 
189.068960257993 0.03212595662914972 
190.064351918871 0.05836897942256808 
191.072156809303 0.2871753257208365 
191.081333381749 0.049758505716949536 
192.07976788022 0.12322143662547747 
192.087815479452 0.025944253570070595 
193.08760501311 0.06441035856221526 
202.076574837651 0.026382513255445477 
203.071911876968 0.04397126794506404 
204.07996438959 0.3780181418420747 
204.089268105056 0.052064682356123465 
206.095470397689 0.29014799046474216 
206.104018086581 0.04981744125798525 
216.079958766493 0.1707686030534091 
217.08768747392 0.26381275697480727 
217.096956337375 0.047139555244398126 
218.095239055441 0.08644348697868029 
219.090669645174 0.07733595695621862 
219.101499027817 0.03868079604274424 
220.074609535189 0.028150377436237037 
228.079918065488 0.07053776060855524 
229.087355449332 0.030592508657538795 
230.095402141849 0.05179507151380237 
231.090763642653 0.040090728152587365 
232.098559219621 0.032285184877900386 
233.106408852841 0.029675516090084623 
245.10677050491 0.03253046128962885 
END IONS

BEGIN IONS
TITLE=rhazimal.mgf
PEPMASS=351.1706281
CHARGE=1+
RETENTION_TIME=219.82
PRECURSOR_MZ=351.1706281
SMILES=C/C=C/1\CN2CC[C@@]34C5=CC=CC=C5N=C3[C@@H]2C[C@@H]1[C@]4(C=O)C(=O)OC
INCHI=InChI=1S/C21H22N2O3/c1-3-13-11-23-9-8-20-14-6-4-5-7-16(14)22-18(20)17(23)10-15(13)21(20,12-24)19(25)26-2/h3-7,12,15,17H,8-11H2,1-2H3/b13-3+/t15-,17-,20+,21+/m0/s1
COMPOUND_NAME=rhazimal.mgf
IONMODE=positive
SKELETON=Akuammiline
103.053896209943 0.10521688317614175 
105.069803677324 0.07554434833976148 
106.065046869339 0.18226473637393528 
107.049083210529 0.06661680987512825 
107.073128319162 0.0625561103558043 
108.080946533884 0.17366104217948347 
115.054374872403 0.10887167955976217 
117.057266505808 0.08599872140266936 
117.070516392324 0.06372117452362927 
120.08082645955 0.13755850220614463 
122.096819514097 0.09584213002736278 
127.054341877829 0.0928268530952506 
128.04975621606 0.0700118145140913 
128.061392715053 0.3040326351419974 
128.069578129384 0.05649324811313674 
129.07005460907 0.862000538718292 
129.077336767704 0.17753174292049098 
130.065212198096 0.2561338082035315 
130.072686492765 0.05328767802112777 
132.080666307338 0.06170083373769915 
139.053819328993 0.09054017057450037 
142.065230133222 0.10543200251598125 
143.073175407818 0.14214555599113127 
144.080730481217 0.3349667422409602 
144.088228244546 0.062007309494640055 
148.075370212074 0.06954345341975723 
154.065327555281 0.508713449460325 
154.073270403672 0.11096053765851836 
155.073219575086 0.2455461293483226 
155.081487544795 0.0569226527116714 
156.080721000021 1.0 
158.097357630656 0.07126781805844554 
160.074225451643 0.05810996722061103 
166.065541612243 0.38349530044338775 
166.074168974045 0.07750279539842339 
166.087289848475 0.055068195946267516 
167.072943429588 0.48101803038116037 
167.081992175589 0.10306262330295153 
168.080843602232 0.3822787685625985 
168.089337377812 0.08473108978589138 
169.07615299112 0.17304907193753616 
169.086301465709 0.06141800663437955 
170.060563308943 0.07340098058504414 
170.096186782027 0.0692680103877447 
179.072658079286 0.06640294165700523 
180.080790323858 0.43568792804921674 
180.089523986959 0.10416829598694125 
180.102721569724 0.05377787241600435 
181.075776879829 0.08470253477259759 
181.088108173314 0.1367688972122555 
182.083912873945 0.12008889342454585 
182.095357471636 0.09278568873759857 
183.067511938157 0.13774754424432495 
183.091559674875 0.14105165857035548 
184.075567760598 0.3436443752756761 
184.08617117381 0.05914439956215646 
184.099608274883 0.05022277326092855 
191.072867116242 0.2610480180514785 
191.083267086537 0.06436908385017744 
192.080588630982 0.17819115766047108 
193.052664498515 0.050787568854625056 
193.088296481454 0.1827110433815416 
193.097024843917 0.050130239317505744 
194.060715539458 0.13097527145661478 
194.095947347189 0.17770444678096198 
202.08612954673 0.04966266324071926 
204.080808609867 0.6795528932557672 
205.088633751947 0.45244976991626323 
205.098203188274 0.10223617154792214 
206.083299549831 0.07924847816988859 
206.096504114419 0.5051443181165859 
206.105668111099 0.11182381164288964 
207.091574182877 0.08697700045776337 
207.104098824959 0.11546030730493173 
208.100077694962 0.07544067695988217 
208.111689991741 0.130705225420242 
216.080553268692 0.0977949593041997 
217.088565732618 0.7015044370663699 
217.097898968234 0.16144199873317794 
218.096488965887 0.7439515624547695 
218.10547264566 0.13418950127344567 
219.091544113125 0.1994992078682309 
219.104260089566 0.3194069584936691 
219.113683914295 0.08390512866682924 
220.076563590491 0.08587086166960475 
220.09946820801 0.07891212268254234 
220.112075619856 0.2895152075071228 
220.122963073292 0.05632763394239247 
221.107289306895 0.11526741377440854 
221.118704135082 0.06707960225123406 
229.088063285976 0.05896561181569162 
230.095943823876 0.28593699939798967 
230.106188941487 0.07602980809755414 
231.104140742615 0.20209607044747474 
232.099661587426 0.07868299568583795 
232.112367496956 0.5725105989634826 
232.120570255515 0.13666125168104148 
233.083557278592 0.07401925549917057 
233.106915487155 0.25275676084096965 
233.118030532666 0.09443832239787535 
234.091912617667 0.10022274872913019 
234.115025133324 0.2041170490601623 
234.127631412859 0.3879613143352545 
234.138811877477 0.08191368633936996 
235.123261781523 0.07032454587961462 
244.11116259907 0.11437435818682534 
245.107930137425 0.06837466041858117 
246.091802561621 0.09620004896546953 
246.115217911428 0.05054006754094726 
246.127525258269 0.0943978203987791 
247.099525955528 0.05922405431143904 
247.123044046974 0.2934015350036871 
247.133118488385 0.07359581212763797 
248.130483046796 0.049517385930817386 
249.138526571496 0.14908574893863175 
250.122520279133 0.052408924471989846 
257.107912957264 0.07412761245253711 
258.115523069146 0.04929839056683664 
261.138469774257 0.05686321216423941 
262.122153928748 0.057273383832857995 
263.154072425391 0.07373991191121844 
264.099827103379 0.051174116401420694 
273.138681682288 0.06246323296720443 
END IONS

BEGIN IONS
TITLE=rhazimol.mgf
PEPMASS=353.1859517
CHARGE=1+
RETENTION_TIME=209.649
PRECURSOR_MZ=353.1859517
SMILES=C/C=C1[C@H]2C(C(OC)=O)(CO)[C@@]34C([C@@](C2)([H])N(CC4)C\1)=NC5=CC=CC=C35
INCHI=InChI=1S/C21H24N2O3/c1-3-13-11-23-9-8-20-14-6-4-5-7-16(14)22-18(20)17(23)10-15(13)21(20,12-24)19(25)26-2/h3-7,15,17,24H,8-12H2,1-2H3/b13-3-/t15-,17-,20+,21?/m0/s1
COMPOUND_NAME=rhazimol.mgf
IONMODE=positive
SKELETON=Akuammiline
103.054427176356 0.06584482200106288 
105.070156332446 0.12622514407187052 
105.076568728649 0.030022139630110824 
106.065287891487 0.09149563836029553 
107.072489720474 0.07511141865400733 
108.0807233896 0.08634533557592436 
115.054005769042 0.14633612465977827 
115.062171108687 0.03023445758770833 
117.057520126109 0.14572372554467178 
117.070382370502 0.11733029838065408 
117.077835070471 0.03464454394437022 
118.065805458121 0.06882675523287249 
120.081119524291 0.12802081159814582 
122.096850090015 0.12175055824607557 
122.104541192746 0.0355472483108517 
127.054220626167 0.11064941570051957 
128.049389058996 0.05676178080786306 
128.061436785922 0.11102851579747053 
128.069000327759 0.03196332003380026 
129.070197876587 0.3335126906596238 
129.077421808621 0.07166216688243343 
130.06556269294 0.5122033110880294 
132.081252942135 0.07817943763840872 
139.054084935204 0.04855835905050326 
141.070337450436 0.03629939627574647 
142.065387006033 0.09887048114644204 
143.07326854323 0.3548395928752007 
143.081817784575 0.08837594486822857 
144.081003158106 0.43565126018935985 
144.08927344489 0.08419760124226323 
148.075988689371 0.042771736436378396 
152.062285552544 0.03773714650659578 
153.058265497308 0.03722567551521761 
154.065199727624 0.4537880613154203 
154.073518725879 0.11278121249779526 
154.085478825087 0.034589900962477334 
155.073175145692 0.10557081741981374 
156.081141546576 0.4706504359334094 
156.090201835128 0.09061691234873752 
157.08914836814 0.08428028621855578 
158.060099173552 0.07725422474404835 
158.065951459074 0.03014701728862446 
158.096630196361 0.43249891348079256 
158.105742410232 0.09203411382110073 
160.075379544548 0.23162577857603156 
160.084823437358 0.05390143973882038 
165.068641020478 0.04658103819359986 
166.065267909792 0.3567737123450485 
166.074836760762 0.09425453254312358 
166.086993004323 0.032206677280162875 
167.073359663938 1.0 
167.093688906048 0.03701966916787039 
167.10232145482 0.037707202383079584 
168.080927599134 0.8849237822627036 
168.089969620931 0.18851560725760247 
168.101221007737 0.0542567920419529 
168.110722352125 0.04440425316070455 
169.08808008671 0.12764724496771568 
169.098884308678 0.0316648586833347 
170.060997312665 0.0885529005163416 
170.096996602589 0.0699550348204909 
171.091587153592 0.0692191702336391 
172.113561135931 0.03571002445100519 
178.077665610764 0.04318334564913903 
179.073075457658 0.08379201543837159 
179.085184309233 0.04793195334826601 
180.081115371245 0.8078241487395801 
180.101851569534 0.03524385871676606 
180.111974414555 0.03339294298569714 
181.088402583193 0.24498878320224016 
181.096556032848 0.07352169983480297 
182.095849207554 0.1543584983094107 
182.106411111954 0.037082410608577566 
183.091797085065 0.10958160076269613 
183.101304466867 0.03244242601005938 
184.076453130432 0.15847580088281848 
184.099509660492 0.09867695391890474 
184.107144816357 0.03287449752089172 
184.111513641087 0.036032608257084854 
186.09132252395 0.06576755521073861 
190.066527237172 0.03600911984450959 
191.073225963347 0.2092053826795581 
191.082596934548 0.049679462423727505 
192.080829127368 0.29627880140503937 
193.076116369698 0.033608949920975184 
193.088935838317 0.31988364733834496 
193.098032034827 0.07601910890438517 
194.060079469615 0.2661824787393841 
194.069137729481 0.06254341753809158 
194.096886680163 0.4494604293739459 
194.105561427126 0.07969304247281397 
195.091213737366 0.08869700120698738 
196.076243949135 0.06651489021256582 
196.111836482779 0.038798736294583316 
197.106848308714 0.06020970685308301 
198.089691701109 0.031214630485480992 
200.107664792969 0.12153169811712274 
200.118306352776 0.032288641753002195 
201.113816593412 0.04108529723361258 
201.118137597976 0.033435250948470746 
203.08427989444 0.03783769996852841 
204.080901504566 0.5995499447229751 
205.08917977714 0.41593655650072797 
206.084230661104 0.11291698416852172 
206.096788888687 0.7058164226369504 
206.105686796147 0.14664487479955596 
206.119293717043 0.037788244611498774 
207.104483233743 0.24672119052532196 
208.076120458452 0.09859712213628698 
208.100011949372 0.14454218634179072 
208.111957266275 0.276701886796803 
208.123110752554 0.05373834657714748 
210.09157937845 0.04173565247063516 
211.086174605106 0.030716618498609145 
216.080531855635 0.05895899931869194 
217.089120237115 0.6692808453292355 
217.099316516196 0.12318214096736523 
218.096841559428 0.4548751569256521 
218.10710821344 0.10499896823905498 
219.103540566915 0.27382500296847423 
219.115185238366 0.06020457686849602 
220.07604517302 0.13070062332194746 
220.088041964342 0.030036117397103462 
220.100282355267 0.10522200728803653 
220.112528330683 0.43527054616467364 
220.124057504721 0.09513729337401969 
221.082632817722 0.05946865464136796 
221.107749193349 0.3061767896441174 
221.118633946643 0.130797804827719 
221.129711058192 0.038943528668544204 
222.091110369635 0.05522261251093725 
222.127945179754 0.11534911562524137 
222.137163590335 0.03257496982531538 
230.096963656555 0.3297020919961865 
230.107862372833 0.06322858750197417 
231.104190577347 0.5441714729050353 
232.076030879196 0.04680721863763749 
232.112346239574 0.30302847775488817 
232.125897676199 0.042156340026906484 
233.08435074423 0.06967349089110714 
233.118866890905 0.1068380388933528 
234.079624285642 0.029545108703796997 
234.091703402954 0.12883578746416216 
234.115449162041 0.17760637801184853 
234.127777144438 0.4191978433314235 
234.138735150026 0.09342422436362254 
234.152887564064 0.028971242113369204 
235.086184202959 0.06439934797319496 
235.09439198884 0.04164547425842902 
235.123227670676 0.24351250044671216 
236.071223038942 0.029016028608021913 
236.107598135694 0.06565702998101329 
236.143691929656 0.037905398472993804 
238.087643440203 0.08891205707770716 
242.097071070786 0.05173393479040266 
243.1030915421 0.04046713409088027 
243.109257803498 0.030978362993098155 
244.111594711633 0.10150268200205431 
245.106993131253 0.1197120810560621 
245.118594299476 0.06444154065541605 
246.091664363594 0.08558670307995053 
246.115817217709 0.05652289068291047 
246.128203708765 0.21792338800321404 
246.136330710748 0.03888508142841827 
247.099691426628 0.04972629514818739 
247.123004609809 0.16225780996923164 
247.134388346066 0.05335048515820527 
248.107720304919 0.10116214324992016 
248.131410335089 0.05640853237481397 
248.142746767527 0.03631910925022682 
249.102829381891 0.0622832869713378 
249.115103644203 0.047004636583822215 
249.138626225418 0.2179687509006293 
249.145159583236 0.0772127525652805 
249.150945219809 0.05094826900486368 
250.087806694894 0.042041578236876175 
250.122502674059 0.0807891299661421 
251.094602668993 0.054002339042410565 
258.092377627159 0.07261599817395605 
258.118036159809 0.03245234013757581 
259.09559822102 0.037517652334604114 
259.122813789901 0.1061524654475364 
259.131705919009 0.032105288034224494 
260.107491708893 0.038814356809449314 
260.12967843763 0.06223365869347938 
261.102599465113 0.04693039590800151 
261.139235306545 0.08800171537462145 
262.120900311983 0.046679804806968477 
263.117676873005 0.03233218898171535 
263.155338112367 0.06770588242075326 
264.102131962842 0.08833940093308079 
264.13771543999 0.05572846357538023 
266.117828510656 0.0804311262103017 
266.12725978305 0.03370224070809926 
273.103365222106 0.03788683830403863 
275.119014936706 0.028970146948120296 
275.156908735881 0.04004053840629248 
277.133402602298 0.038665241414769055 
291.150285345731 0.0940334532635348 
END IONS

BEGIN IONS
TITLE=strictamine.mgf
PEPMASS=323.1748491
CHARGE=1+
RETENTION_TIME=235.452
PRECURSOR_MZ=323.1748491
SMILES=COC([C@H]1[C@H]2C[C@]3([H])N(C/C2=C\C)CC[C@@]14C3=Nc5c4cccc5)=O
INCHI=InChI=1S/C20H22N2O2/c1-3-12-11-22-9-8-20-14-6-4-5-7-15(14)21-18(20)16(22)10-13(12)17(20)19(23)24-2/h3-7,13,16-17H,8-11H2,1-2H3/b12-3+/t13-,16-,17+,20-/m0/s1
COMPOUND_NAME=strictamine.mgf
IONMODE=positive
SKELETON=Akuammiline
108.080701673923 0.03375090244823506 
109.064663721055 0.029983917332314394 
120.080885114561 0.026684188788105873 
122.096434004647 0.13846923418669188 
122.103984158784 0.027242897698515893 
123.080245721861 0.028227050476366734 
129.069633987204 0.024592995646728396 
130.065040732705 0.044254849946909175 
144.080786986994 0.05788595094730562 
154.065073942372 0.03599734298835382 
156.080650327231 0.3104912905077509 
156.088789242449 0.04603793940999612 
158.096465594922 0.03272018660931806 
166.065064236747 0.0334524270098911 
167.072777879578 0.253051825276776 
168.08082770758 0.09689733155880408 
169.08539358858 0.026411314265911263 
170.095661092692 0.041097584284161874 
171.091513826107 0.03034701675202165 
180.080675799332 0.09511000184434992 
180.10182272579 0.025637707503316082 
181.075732079391 0.050269853741615335 
181.088133761585 0.10480758424749805 
182.083698276721 0.11929470591864168 
182.095821428647 0.1608532979830272 
182.105076638309 0.03523685549972558 
183.091488822106 0.11419888022294157 
184.075402067828 0.0364956203463839 
186.090996184662 0.026873390079373997 
188.070542764302 0.032339743605071275 
192.080316245777 0.027880625127825246 
193.088345427468 0.033043019581831506 
194.059810346823 0.19932401466361813 
194.068514467694 0.03543364460922975 
194.095903620254 0.1205566429834281 
202.086124253266 0.06268589955418379 
204.080590204967 0.03320112038280862 
205.088428084284 0.0998258946412309 
206.096333137179 0.0737913569968053 
207.104235052809 0.03211773615848848 
208.075598801373 0.029909920163718337 
208.099416552459 0.02460831475035201 
208.111773440971 0.04688605344661499 
216.101705496169 0.14671480149008173 
217.088216284859 0.03955700212953075 
219.104072285306 0.055586108745231504 
220.075908375545 0.032028515531036486 
220.112019252133 0.4159606887252194 
220.121645913221 0.05748723979243172 
221.107368529951 0.046865999926991156 
222.127332807457 0.07156423669975816 
226.086456729806 0.02568361699180308 
231.10382603229 0.06180424608569803 
232.111796141092 0.15813284197428015 
233.119242990616 0.04277108078428071 
234.127500745651 0.41944741873103936 
234.137123114832 0.05418360575354288 
235.087069712676 0.027708034144544428 
235.122745162854 0.05380346562439375 
236.094243245482 0.047957083555109636 
236.143382891557 0.04271905003066211 
237.101759055566 0.06232286389765499 
240.101611306926 0.04906308776698639 
246.127521081063 0.11726517177082939 
246.137345301982 0.02740922394951359 
247.122634582018 0.05703761373956217 
248.106887595611 0.11667276402060633 
248.13061587614 0.043759186879195715 
248.142924295377 0.05053565055100153 
249.138354632024 0.08250110429854685 
252.102119316352 0.02862553846011605 
262.122501870179 0.0870014456706635 
263.117496024198 0.032219502191301326 
263.154052272363 0.28622063366890294 
263.164315786959 0.05350220054699242 
273.138044266284 0.031605143966895434 
274.122606656979 0.056149663657204044 
280.132687024037 0.033192974636761095 
291.149264915109 0.2785350983618761 
291.160048043014 0.04908263118118259 
294.148885837522 0.2419418884708681 
294.159829044919 0.04699663473884914 
323.175401030264 1.0 
323.185459317347 0.13608063364020956 
323.199993925615 0.07316920372383337 
323.216214257767 0.07290361414477715 
323.26621613999 0.02738671554751927 
END IONS

BEGIN IONS
TITLE=Ajmaline.mgf
PEPMASS=327.2069387
CHARGE=1+
RETENTION_TIME=753.16
PRECURSOR_MZ=327.2069387
SMILES=CC[C@H]1[C@@H]2C[C@@]3([H])[C@]([C@@]4([C@H](O)[C@H]52)C[C@@H]5N3[C@@H]1O)([H])N(C)C6=C4C=CC=C6
INCHI=InChI=1S/C20H26N2O2/c1-3-10-11-8-14-17-20(12-6-4-5-7-13(12)21(17)2)9-15(16(11)18(20)23)22(14)19(10)24/h4-7,10-11,14-19,23-24H,3,8-9H2,1-2H3/t10-,11-,14-,15-,16-,17-,18+,19+,20+/m0/s1
COMPOUND_NAME=Ajmaline.mgf
IONMODE=positive
SKELETON=Ajmaline
103.054343480998 0.04638756372322619 
105.069695021777 0.029488644246820035 
106.065722057739 0.06342471912629004 
107.075552213622 0.02476940803997819 
108.080867045064 0.0849444889065954 
109.070742438368 0.030594915331920727 
110.060771057506 0.04247698331898538 
110.096272066458 0.12369061615416058 
115.054324032432 0.13244942945923632 
116.058416326556 0.040628680527658695 
117.060927077556 0.10431508458719708 
118.065132701151 0.0848706787403701 
120.080721776041 0.05195922543084792 
127.054183529184 0.03463221113813866 
128.056139363077 0.0721092556372281 
129.065331875614 0.04351826869015885 
130.065352476555 0.18418062938358037 
131.072510787534 0.1372903311170927 
132.080030006338 0.08305140020519183 
138.091478400364 0.0671063615072206 
142.065735946258 0.07942267342952228 
143.072976011594 0.23730673568058924 
144.080388921535 0.7767297430083066 
144.189309682869 0.025316420387367533 
145.085368946398 0.14070117376622024 
146.094186963491 0.07409582546374 
152.061561331713 0.02515009346038609 
154.066053086035 0.04564119756216987 
155.072469687553 0.026660568012677348 
156.080500241984 0.06741604689838648 
157.088326855404 0.16471820132982734 
158.096064118378 0.5479635424649029 
159.098991636287 0.0901934100110145 
166.068190428216 0.029096033890874187 
167.07318187925 0.22610102929821857 
168.08014279981 0.19463662025343495 
169.085589559759 0.10773121568599799 
170.094580326496 0.12163569052324336 
171.097561747068 0.055859705933163535 
172.090043236147 0.025442503249285695 
172.107708071463 0.025545659126443514 
173.087690670728 0.02752418221384458 
174.091587901179 0.04277440158081093 
179.075788473515 0.026827185285915364 
180.081086163144 0.09499131968387929 
181.08771867321 0.1154263247410889 
182.096412038074 0.22981155076216928 
183.099511577782 0.07383621443232433 
184.111353185023 0.0904743614922885 
185.108965323078 0.04800021941881389 
193.088145583552 0.05178356594561939 
194.096348853957 0.2611054850763061 
195.101379470563 0.10968918640623714 
196.109109514685 0.06835940262502051 
197.106932974308 0.03039493934770395 
204.080710816495 0.03810486643138941 
205.087434736446 0.03906801755101643 
206.094227111729 0.037138448916375924 
207.100654565802 0.03514782461178113 
208.11126002913 0.07160381465207497 
209.115161332192 0.037379114854550005 
210.12683125305 0.1321094132537674 
211.126647163157 0.042676088264432435 
212.109667876023 0.06141605187575088 
220.111446242441 0.07928373237624146 
221.112825034121 0.04511992233652417 
222.123663520928 0.0438646310352358 
223.126417542914 0.03169450845312017 
235.125032774103 0.03349446859272695 
237.139821088383 0.04303326600756684 
238.133421502376 0.05641344809199994 
239.153507176917 0.06273552006925172 
309.196227013878 0.026998665858951033 
327.206938678533 1.0 
327.364018790907 0.0607182772346344 
328.210046376024 0.3243715196038681 
329.213293548887 0.042471746716857856 
END IONS

BEGIN IONS
TITLE=O_trimethoxy_3_4_5_benzoyl_OH_vincamajine.mgf
PEPMASS=577.2550169
CHARGE=1+
RETENTION_TIME=945.791
PRECURSOR_MZ=577.2550169
SMILES=C/C=C1[C@@H]2C[C@@]3([H])[C@@]4([H])N(C)C5=CC=C(O)C=C5C4([C@@H]6OC(C7=CC(OC)=C(OC)C(OC)=C7)=O)C[C@@H](C26C(OC)=O)N3C\1
INCHI=InChI=1S/C32H36N2O8/c1-7-16-15-34-22-13-19(16)32(30(37)41-6)25(34)14-31(20-12-18(35)8-9-21(20)33(2)27(22)31)29(32)42-28(36)17-10-23(38-3)26(40-5)24(11-17)39-4/h7-12,19,22,25,27,29,35H,13-15H2,1-6H3/b16-7-/t19-,22-,25-,27+,29-,31?,32?/m0/s1
COMPOUND_NAME=O_trimethoxy_3_4_5_benzoyl_OH_vincamajine.mgf
IONMODE=positive
SKELETON=Ajmaline
108.079906094344 0.047461081353680865 
109.06554563355 0.033421157303257246 
122.036273335788 0.03187007000625565 
124.051849809712 0.046676691618815436 
139.075507355083 0.08144415345341842 
151.042491726726 0.025405133302162285 
152.047171315278 0.1253832155845444 
160.075879139189 0.04915708646842737 
166.086276962834 0.04686068654081279 
167.071290454014 0.08600720914701865 
174.091308741453 0.02634043929132101 
188.1064361846 0.025850432245684205 
195.065413970387 1.0 
195.190794688519 0.05874926627087396 
196.070403226717 0.11217820408830655 
197.082276973265 0.03521465308735763 
198.089897780653 0.04591974955379164 
224.071884634065 0.05768285815856265 
256.097275620526 0.039558329513501994 
547.207327675538 0.02457923218174987 
577.255016855416 0.8433494975735267 
577.459453308386 0.05514500508443282 
578.258106778961 0.2681275416422856 
END IONS

BEGIN IONS
TITLE=O_trimethoxy_3_4_5_benzoyl_vincamajine.mgf
PEPMASS=561.2585965
CHARGE=1+
RETENTION_TIME=1099.609
PRECURSOR_MZ=561.2585965
SMILES=C/C=C1[C@@H]2C[C@@]3([H])[C@@]4([H])N(C)C5=CC=CC=C5C4([C@@H]6OC(C7=CC(OC)=C(OC)C(OC)=C7)=O)C[C@@H](C26C(OC)=O)N3C\1
INCHI=InChI=1S/C32H36N2O7/c1-7-17-16-34-22-14-20(17)32(30(36)40-6)25(34)15-31(19-10-8-9-11-21(19)33(2)27(22)31)29(32)41-28(35)18-12-23(37-3)26(39-5)24(13-18)38-4/h7-13,20,22,25,27,29H,14-16H2,1-6H3/b17-7-/t20-,22-,25-,27+,29-,31?,32?/m0/s1
COMPOUND_NAME=O_trimethoxy_3_4_5_benzoyl_vincamajine.mgf
IONMODE=positive
SKELETON=Ajmaline
106.040986526956 0.04319457725432528 
107.009890150623 0.035279296123751205 
107.045935321821 0.05849480694323503 
108.055522034177 0.08598982677198494 
109.026003505222 0.09184626158475037 
109.061584531784 0.26192283766294433 
111.077219034599 0.059706266879786 
113.056737811505 0.048162653461175174 
121.02558791826 0.10572259221221635 
122.033712852823 0.29033343525904914 
123.04014673581 0.04732842495647431 
124.048893277708 0.38656289587219983 
125.053427531234 0.026869042885643492 
134.033512674213 0.06518524706570318 
137.020842370229 0.19866948147444313 
139.072613954801 0.503478600329287 
140.07566462003 0.03456434940305435 
151.036318015143 0.18743150703494693 
152.044109817356 0.9132401717411112 
153.047813028451 0.06283034852536659 
167.067761104005 0.30575227714696845 
168.072379968258 0.029135354268386458 
191.070664967371 0.026715633523591124 
192.076762063705 0.0283591458348678 
195.062573255439 1.0 
196.068136605573 0.10636091927855298 
204.077983676192 0.04068723653026157 
208.073168171306 0.04310038896511175 
217.085194501089 0.054444391657055995 
218.086317138733 0.0527229736630965 
219.069444220837 0.0453006665134061 
220.072984488694 0.2618137909638548 
221.07772909278 0.05613178835629957 
222.084988284723 0.028768166611452473 
228.077406488984 0.0736650096032305 
229.084410155469 0.06653550240609522 
230.091169931509 0.02751338558859656 
232.074803722375 0.14157822033448852 
233.080173033217 0.23017451829470942 
234.085641692515 0.11424491059605499 
235.081148746213 0.06789111442644252 
236.074015085122 0.03656769456465975 
241.084823214416 0.025557049544931966 
242.092785359574 0.03642541306751447 
243.079542191884 0.046945709304669986 
244.09401119653 0.04719097935095532 
245.081694632222 0.12150958893539493 
246.088770813291 0.279114804386058 
247.093964285666 0.1753916248521466 
248.099546277381 0.10376022990360208 
254.089275713754 0.06312850515787698 
255.096699925548 0.024601190394580058 
256.079245604092 0.03788957225528874 
257.081237141018 0.540389420004415 
258.086616572657 0.2221504455450438 
259.08841135598 0.16912643497112761 
260.101743692749 0.22377498628147885 
261.10359170474 0.08593397488078464 
262.113157340972 0.04158649980608606 
270.088692267506 0.23345909840061652 
271.095672754599 0.132668382292219 
272.103580033559 0.27343927443344873 
273.101229168735 0.24697971997105267 
274.106801038514 0.16094857023941278 
275.111807157256 0.04869490976173084 
287.112189940801 0.05715849597605989 
288.111884577666 0.024890716820495845 
289.130455082693 0.12377353019982436 
END IONS

BEGIN IONS
TITLE=Quebrachidine.mgf
PEPMASS=353.1861169
CHARGE=1+
RETENTION_TIME=814.652
PRECURSOR_MZ=353.1861169
SMILES=C/C=C1[C@@H]2CC3[C@]([C@@]4([C@H](O)C52C(OC)=O)C[C@@H]5N3C\1)([H])NC6=C4C=CC=C6
INCHI=InChI=1S/C21H24N2O3/c1-3-11-10-23-15-8-13(11)21(19(25)26-2)16(23)9-20(18(21)24)12-6-4-5-7-14(12)22-17(15)20/h3-7,13,15-18,22,24H,8-10H2,1-2H3/b11-3-/t13-,15?,16-,17-,18-,20+,21?/m0/s1
COMPOUND_NAME=Quebrachidine.mgf
IONMODE=positive
SKELETON=Ajmaline
103.054412500702 0.05489394873359134 
104.051907990943 0.030500639364970425 
105.069060163227 0.0643862767069915 
106.065563804441 0.13553273470978622 
107.074983016896 0.06686431905688901 
107.084185919181 0.030348882858875804 
108.08107394975 0.13921757402829588 
115.054068905854 0.1573216821335796 
116.057338075429 0.04315337557166855 
117.063299332313 0.162192947709054 
118.065716020409 0.0804213277467451 
120.079557125096 0.03682187948588137 
121.05402538723 0.05548484058947262 
122.095109670723 0.027394935495100085 
127.053796563504 0.04853429728811812 
128.057391429808 0.07567295722715427 
129.067029219667 0.06388316955563604 
130.064980934903 0.4284379018096394 
131.069892601247 0.07804478590982236 
132.080182941932 0.08572085487792047 
134.060086596431 0.039283770015018545 
134.093218888655 0.03686124403265245 
135.079900167879 0.09272207782670985 
136.076034701649 0.19686933583006944 
142.06505516703 0.05622764782181664 
143.072634666985 0.15939126876700355 
144.080126407449 0.31139404158449535 
145.079545135922 0.05083839423717157 
151.061766275093 0.0897153855007135 
152.06467134682 0.048335638718897594 
154.065105253718 0.06723482240764159 
155.071201033061 0.03551727132728778 
156.079860929475 0.1007499034421207 
157.085509563372 0.04315529966834928 
158.091380128839 0.061055435873211564 
159.091168261128 0.06741748802646992 
162.089928630048 0.03608659211762903 
163.076435780177 0.04418749810238171 
164.070561473391 0.1395076713205093 
165.075176031264 0.08845257790120241 
166.069171221203 0.0316196163245305 
166.084582044042 0.13327474547201798 
167.074262385766 0.15995400526319878 
168.080031715197 0.15143742378635397 
169.081330906837 0.05039936480096367 
170.095343582756 0.15361170599237844 
171.099306657147 0.05957831214708713 
179.073561068153 0.03299290943894753 
180.080477471596 0.07969262467263878 
181.0844264198 0.03781674338340221 
182.088951028511 0.03638085534394023 
191.07373044935 0.032540958546131364 
192.081236151491 0.03979803339666965 
193.087895066039 0.04026917229950383 
194.093174116726 0.044707251337865024 
195.096752762002 0.03147412637184563 
204.080083172109 0.06549199681694391 
205.08435844385 0.044388627988439885 
206.092622107663 0.07430834902619525 
207.096717142836 0.03272443616906349 
208.10332428 0.028297689883629223 
216.080759874557 0.027076029709464933 
217.087657370145 0.1165988466717364 
218.09279525826 0.104241009172822 
219.094509831226 0.08237589223363971 
220.10077798168 0.04754635307774268 
230.094731692947 0.03235783396846176 
231.099124011032 0.03251040247866018 
232.108416926295 0.07650356681628726 
233.110472958184 0.07218072175161289 
234.113915151438 0.044817242589403415 
235.121445353173 0.07433179123162664 
238.08569649303 0.0817643119253747 
245.105623752342 0.026087838367405733 
247.09278399681 0.030849024430026076 
260.113508871553 0.02909334799177263 
261.10807982303 0.038240327089374825 
279.113827059718 0.026274546354489923 
293.16179276542 0.03366399552621044 
294.136439053757 0.14859592133869115 
295.13964003342 0.04228737319496784 
353.185556096159 1.0 
354.188171303937 0.33755275378835214 
355.191574870947 0.05919644073888137 
END IONS

BEGIN IONS
TITLE=Rauvomitine.mgf
PEPMASS=503.2530703
CHARGE=1+
RETENTION_TIME=1373.657
PRECURSOR_MZ=503.2530703
SMILES=C/C=C1[C@@H]2C[C@@]3([H])[C@]([C@@]4([C@H](OC(C5=CC(OC)=C(OC)C(OC)=C5)=O)[C@H]62)C[C@@H]6N3C\1)([H])N(C)C7=C4C=CC=C7
INCHI=InChI=1S/C30H34N2O5/c1-6-16-15-32-21-13-18(16)25-22(32)14-30(19-9-7-8-10-20(19)31(2)27(21)30)28(25)37-29(33)17-11-23(34-3)26(36-5)24(12-17)35-4/h6-12,18,21-22,25,27-28H,13-15H2,1-5H3/b16-6-/t18-,21-,22-,25-,27-,28+,30+/m0/s1
COMPOUND_NAME=Rauvomitine.mgf
IONMODE=positive
SKELETON=Ajmaline
108.08376104641 0.07210623054583779 
109.069580995145 0.05363874142801966 
120.084555198614 0.026551688528897072 
122.040161866307 0.0546131896245818 
124.055950984785 0.07889355330383496 
130.069561956945 0.03896685711855921 
131.078144697375 0.02454625895416651 
132.084712309784 0.02824997203207124 
134.100228574139 0.02720869946853342 
135.047924339482 0.03205286621914606 
137.028079979364 0.037596980374866425 
139.079458578029 0.11403696423699188 
144.084920520163 0.11520711200383503 
145.090503442835 0.0299732014090774 
146.100178801437 0.04477672987334198 
151.043332942574 0.04559203675871701 
152.050951498782 0.18128887352269854 
158.100413030761 0.05188443095009458 
167.075696375885 0.16761399904934352 
168.082434373926 0.05427544841068764 
170.100386969898 0.060159647518042474 
181.092485930363 0.03343150540350508 
182.100519902713 0.1292954056159601 
183.104572753576 0.038708468891310806 
184.115485971704 0.04820254044972429 
194.100789885106 0.04423743733791889 
195.069912557587 1.0 
196.074146313274 0.14274228452166235 
218.100622412371 0.025288656866164477 
220.11548124873 0.04047527255442609 
232.114817215508 0.027202457938006873 
233.119456268059 0.03229078850323238 
234.129833222782 0.028906972847570486 
246.130375248806 0.025473270506313157 
247.130009297676 0.031310255700268845 
248.144163726033 0.034198363230753884 
263.158872026795 0.05393082278356062 
291.189973184638 0.05690711661031741 
503.258347740443 0.6372779840008261 
504.26179868756 0.3083743318702268 
505.264398442449 0.06466579970305905 
END IONS

BEGIN IONS
TITLE=sandwicine.mgf
PEPMASS=327.2061564
CHARGE=1+
RETENTION_TIME=138.225
PRECURSOR_MZ=327.2061564
SMILES=CC[C@@H]1[C@H](N2C3CC1C4C2CC5([C@H]4O)C3N(C6=CC=CC=C56)C)O
INCHI=InChI=1S/C20H26N2O2/c1-3-10-11-8-14-17-20(12-6-4-5-7-13(12)21(17)2)9-15(16(11)18(20)23)22(14)19(10)24/h4-7,10-11,14-19,23-24H,3,8-9H2,1-2H3/t10-,11?,14?,15?,16?,17?,18-,19+,20?/m0/s1
COMPOUND_NAME=sandwicine.mgf
IONMODE=positive
SKELETON=Ajmaline
105.069557843301 0.04915572479491672 
106.065156146958 0.0893098752621427 
107.072804755455 0.025153906371993516 
108.080708782377 0.06611504606475205 
109.064699495861 0.02821406771028631 
110.096145157121 0.07122965483549193 
115.054195910829 0.03371112696864536 
117.057528001326 0.04713243499363102 
117.069319476712 0.030277998502190102 
118.064980321838 0.08450525012490405 
119.072961043562 0.03262785656340919 
120.080766443575 0.05398441322102875 
130.064819880456 0.15286697640793612 
131.072907975268 0.10673820561266692 
132.080437446402 0.10036482715807019 
134.096462603287 0.043373368413799934 
138.091561287267 0.02704126109637884 
142.065519731338 0.02470446645802583 
143.072860679576 0.13998266058263625 
144.080642435427 1.0 
144.088372856342 0.14062935714317865 
144.10838946775 0.11572063317957064 
154.065116686672 0.025968059186688534 
156.080745887191 0.05902662438452511 
157.088541504686 0.15997388700364273 
157.097194629263 0.03126444792756223 
158.096335799006 0.7014961133460539 
158.104224402806 0.10145536156043676 
158.125360603265 0.03164944670016138 
167.072772338748 0.24236998120293593 
167.081949706338 0.04226863840216992 
168.080705579949 0.2862453202096657 
168.089209613421 0.05170601793424801 
169.088537526309 0.605611004990276 
169.097059821642 0.09196092260380713 
169.118246089255 0.026231273481182333 
170.096198567041 0.1532553821267585 
170.104699977485 0.028546954747513776 
171.103777240836 0.03330068689437116 
172.075547410159 0.03831713475822627 
172.111988793924 0.0513384209011996 
180.080611864805 0.09796261845976253 
181.088245132137 0.20617477841865758 
181.097491112143 0.03512024892866429 
182.09631555416 0.3834012472054558 
182.105016920596 0.24402030733840288 
182.127612709303 0.052106888090472425 
185.107274591389 0.05864732462969368 
193.088154978417 0.06649091809929794 
194.096251702014 0.3649050608039493 
194.105624724924 0.06405675196842896 
195.103907728156 0.11528950213920906 
196.111842350737 0.10803675762589861 
196.121107725074 0.03736412464852883 
197.107190801958 0.03711352020987343 
204.080729541779 0.06681793646391528 
205.088675072076 0.11985650662675278 
206.096064725011 0.046074238881635275 
207.104147983525 0.10415477784390854 
208.112091408788 0.18290568194841314 
208.121056811696 0.0270236308421424 
210.091481547701 0.025995429013817174 
210.127777127808 0.17160486902473046 
210.137072633224 0.04193964650163059 
212.106982397597 0.024764264596462107 
218.096168455685 0.08302769494120421 
219.104464022813 0.03823878191977957 
220.111759501232 0.2882834288420849 
220.121306398468 0.1261714060958716 
221.106693422361 0.07168903860063146 
223.12234100232 0.06530440752893568 
223.13476719375 0.06294672457090308 
231.104292372004 0.05037332721190963 
232.111153620117 0.03182689874064172 
233.119733097559 0.03388165432168012 
234.127637354518 0.044765992305979774 
235.122785425669 0.04725725248483753 
236.10710082 0.027958010080267513 
236.143229045759 0.1082479952164259 
236.15401392184 0.04857574759791248 
237.138351344231 0.06210627525563349 
238.122834253083 0.029808629337754057 
239.154326709012 0.070395991713919 
261.138239868078 0.05025830815343861 
327.206416096046 0.029829760021494227 
END IONS

BEGIN IONS
TITLE=seredamine.mgf
PEPMASS=339.2059239
CHARGE=1+
RETENTION_TIME=148.638
PRECURSOR_MZ=339.2059239
SMILES=O[C@H]1[C@@]23[C@@]([C@@](C[C@H]([C@@H]41)/C(C5)=C/C)([H])N5[C@H]4C3)([H])N(C)C6=C(OC)C=CC=C62
INCHI=InChI=1S/C21H26N2O2/c1-4-11-10-23-14-8-12(11)17-15(23)9-21(20(17)24)13-6-5-7-16(25-3)18(13)22(2)19(14)21/h4-7,12,14-15,17,19-20,24H,8-10H2,1-3H3/b11-4+/t12-,14-,15-,17-,19-,20+,21+/m0/s1
COMPOUND_NAME=seredamine.mgf
IONMODE=positive
SKELETON=Ajmaline
103.054026789583 0.02974860500050321 
105.069749720001 0.11537574595664475 
106.065283284258 0.09207176839094527 
107.073112059989 0.03993385633648469 
107.085601204666 0.07843279836091444 
108.08083487582 0.5035513313842893 
108.087417591913 0.055750420270389484 
109.064893808375 0.2228605659020003 
109.071554483896 0.0288386869920568 
110.096523834215 0.33145697462473867 
110.103586907481 0.04329381404231157 
115.054385088688 0.05122307070109674 
117.05747543222 0.14575098249463558 
117.069747780175 0.07557258346079154 
118.065310998746 0.08552354880914072 
119.072916761499 0.04463958008993103 
119.085459321587 0.03462164482585959 
120.080908093712 0.049581795241035787 
121.052195658612 0.05963410073319012 
122.060044130637 0.0475404863581412 
122.096619360343 0.05130432918881913 
123.067977317063 0.05903464854461576 
128.062280728559 0.030227613845750515 
129.070041506461 0.05642718605832968 
130.065330138439 0.13351942127555946 
131.073251764939 0.2517343530817965 
131.082504422289 0.032733192601253173 
132.081090927265 0.07864355479791611 
133.052040183138 0.024896423384055694 
134.060302628741 0.08047247648287423 
134.096580014002 0.12190169400339697 
135.067966008746 0.06554758156600264 
135.079832777182 0.02676909605523589 
136.075834370533 0.2606737185946506 
136.083624825062 0.030329109300120897 
138.091587603546 0.12516638420851872 
143.073194325107 0.037670484407440495 
144.08081499035 0.13009097161047117 
145.052256079162 0.10616334447013628 
145.088775776506 0.09926929485275938 
146.060104206955 0.07264682750214639 
146.096621032212 0.24812804175741981 
146.104575238248 0.0669184147388484 
147.067981272136 0.05484096819363873 
148.075738057347 0.046587081391433575 
150.091433371616 0.03413008688694261 
154.065003561704 0.043719582425801935 
155.072889537375 0.02514243531936201 
156.080506283651 0.07603627868430829 
157.088861525936 0.15553700802272258 
158.059880591667 0.10030016872939806 
158.096677772899 0.06589128384683149 
159.068132637873 0.7585872764615036 
160.075933248977 0.26808234317670987 
160.083692786388 0.03702863243456145 
160.111235278016 0.025442091523894844 
161.083776538011 0.08466663829660342 
162.091406031375 0.05906252679107251 
167.073153123525 0.03119906590013655 
168.080996741998 0.08287261489564994 
169.088657524329 0.07591369205518123 
170.05978080453 0.028891849798531138 
170.096476743089 0.06023468668889057 
171.068117398965 0.02867890348255987 
172.075843219108 0.18426449265008282 
173.083722287757 0.5567245436664974 
173.09182199856 0.06600823270244112 
173.113980077769 0.02903750004659317 
174.091509382513 1.0 
174.099982641505 0.14999933216456957 
174.122155653217 0.050185223380079746 
180.080805233944 0.04107995512145908 
181.088944572965 0.07326834932203832 
182.060271452424 0.04627136607445713 
182.096505215966 0.04912220021644081 
183.06816611688 0.07474589638424581 
183.104236580947 0.028251877083491233 
184.075856931819 0.15949478715618903 
184.084872150509 0.02567845867310108 
184.111049587152 0.025138505962061977 
185.070884934977 0.06378507067873203 
185.083575538163 0.14417172254326643 
186.091418030361 0.14079438558519158 
186.099850456741 0.027142167563947574 
187.099087697477 0.11800777857434841 
188.107180013274 0.650728126991858 
188.115472941981 0.07547733149114295 
188.138976618796 0.03515502789998994 
194.096453870302 0.05913418708586439 
195.067932290245 0.02581645211029784 
196.075837672774 0.17162733788993825 
197.083574129991 0.11742127928691327 
198.091436173561 0.1480116675509015 
198.100264865583 0.026378008520958854 
199.08677185759 0.12504856561374386 
199.098886444822 0.1118168354167728 
200.094454664621 0.04937711144713415 
200.107170934329 0.1424200057402785 
200.116017791866 0.024690559229858397 
201.102612983716 0.040956079414640696 
201.114589771329 0.07973324478560309 
202.122743897889 0.07847387800541475 
208.075654111473 0.026921036381189284 
209.083492113895 0.07261248833617655 
210.091438666658 0.09736135115221803 
211.086575214112 0.03227153194614078 
211.099137895488 0.07811486210285537 
212.107032456368 0.15663039440186174 
213.102391750855 0.07552833548076075 
214.122580060511 0.0577954410757928 
215.118459393594 0.035184831997455396 
220.112613005448 0.036686032858745665 
222.091446424528 0.06094666138196584 
223.099288808347 0.03409178730155969 
224.107182798499 0.13269479982953114 
225.114659198123 0.03766549893829698 
226.086331704757 0.04149089134597106 
226.122646522436 0.03649420877964413 
227.11789410671 0.02646319636598127 
232.112044099958 0.02848485846237571 
233.083329433881 0.0305972063978013 
233.120291426628 0.03846078221855552 
234.091177332698 0.07368057462424163 
235.099145019801 0.03976220709980506 
236.107265798565 0.08017780574748491 
237.114528025516 0.03577510533162533 
238.12263454217 0.08458629614121582 
246.127719647643 0.04000565641078527 
247.099114576661 0.053893247593618104 
248.106899374072 0.08428440346454386 
249.114555721683 0.09344162310723016 
250.122772038002 0.09609861413276444 
252.138745879108 0.050762838903184365 
260.107078739129 0.057308713295454124 
261.114769531286 0.02950866570829694 
262.122973300594 0.06005802092095438 
263.1179517359 0.036709360505641504 
263.130288839989 0.09608634459811217 
264.138447224699 0.07995998267976577 
274.122313090756 0.04206606849320175 
276.138471257488 0.030750497925672093 
277.134046304688 0.03749655210545215 
278.153884262616 0.036880590403795044 
279.149344611467 0.060564426549906264 
289.145636375901 0.060057772424050034 
293.164877329234 0.0449882057156773 
305.164805994969 0.04324691025161554 
321.15991004553 0.043093447882123014 
323.176078320187 0.0832833181543141 
337.190610739358 0.02608982976719568 
339.206554396951 0.05214889251142154 
END IONS

BEGIN IONS
TITLE=tetraphyllicine.mgf
PEPMASS=309.1959752
CHARGE=1+
RETENTION_TIME=155.257
PRECURSOR_MZ=309.1959752
SMILES=CN1C2=CC=CC=C2[C@]34C[C@@H](C5C4O)N6[C@](C[C@H]5/C(C6)=C\C)([H])[C@@]31[H]
INCHI=InChI=1S/C20H24N2O/c1-3-11-10-22-15-8-12(11)17-16(22)9-20(19(17)23)13-6-4-5-7-14(13)21(2)18(15)20/h3-7,12,15-19,23H,8-10H2,1-2H3/b11-3-/t12-,15-,16-,17?,18-,19?,20+/m0/s1
COMPOUND_NAME=tetraphyllicine.mgf
IONMODE=positive
SKELETON=Ajmaline
103.053984977725 0.04558824736794573 
105.069802180449 0.07554239142886074 
106.065265942801 0.10316421227206424 
107.073044936221 0.03301431742130814 
107.085854883011 0.02991695966014451 
108.080698576195 0.25194349190884485 
108.086908091542 0.0464803836745194 
109.064789205166 0.06229878649288664 
110.096568094647 0.13935639045067372 
110.103244940468 0.025588458487453832 
115.054400936145 0.07869225539361473 
117.057443662002 0.1272543947066866 
117.069850866845 0.0661629772229418 
118.065056860582 0.07010887902187551 
119.073156013353 0.032122388324622046 
120.080751237718 0.10593824441618224 
121.052053650089 0.026316261714689187 
123.067929991516 0.027105520266886337 
127.054338251809 0.02461861065379411 
128.049494004874 0.04031506849850633 
128.062122855118 0.042531862429836975 
129.070135080927 0.04529463486685592 
130.065030993036 0.14151418820834993 
131.07296206473 0.126769953627991 
131.081444528154 0.024878506587515097 
132.080785458131 0.06668272217493754 
134.09630300318 0.03257244038121928 
136.075738683731 0.07065489662376902 
138.091718239155 0.052170288995239254 
142.065347516967 0.03295018791591032 
143.072924819441 0.2484048161833268 
143.080884231138 0.05173022210945139 
144.080881854219 1.0 
144.08820599546 0.1541192348247102 
144.104513176988 0.05048180208484424 
146.096539989914 0.08499784775390345 
154.065303407644 0.039620915375090944 
155.072696548063 0.03053973484171706 
156.080683144666 0.06477611753570363 
157.088665201145 0.11215227346388078 
158.096550670777 0.6271402728836931 
158.104408777469 0.10780289882723114 
158.120293544227 0.03258405586378569 
167.072956442635 0.14451916163661407 
167.081678316613 0.02491853719202453 
168.080587928808 0.15293598817417986 
169.088560070485 0.0624926254782932 
170.096431950565 0.13724453073411336 
171.104493965398 0.034989571087261556 
172.111823960325 0.04058244744590356 
180.080572792889 0.07138032671134842 
181.088615154296 0.14367960972604116 
181.098253820347 0.024824338795203522 
182.096281332119 0.13633976635325845 
182.104670193841 0.08527089565105542 
193.088422210036 0.02717699203962166 
194.096413192622 0.12339817960249325 
195.104296470393 0.03508231510524894 
196.111910560167 0.02804906417368411 
197.107204982138 0.02525137491579655 
206.096269048796 0.029398559617607838 
207.104404503809 0.0328881930633167 
208.112148915264 0.06016726138510818 
218.096437633566 0.07449953925122166 
219.103337743576 0.03732994812324531 
220.111677280337 0.06668854750951309 
222.127296717595 0.03242735436370339 
231.104909050412 0.027694043263078758 
232.112649888383 0.04284322460808987 
233.118973007836 0.047545716170151374 
234.127675440105 0.04319509045493517 
244.111703381884 0.0254190507206799 
END IONS

BEGIN IONS
TITLE=Trimethoxy_3_4_5_cinnamate_vincamajine.mgf
PEPMASS=587.2747539
CHARGE=1+
RETENTION_TIME=1348.371
PRECURSOR_MZ=587.2747539
SMILES=C/C=C1[C@@H]2C[C@@]3([H])[C@@]4([H])N(C)C5=CC=CC=C5C4([C@@H]6OC(/C=C/C7=CC(OC)=C(OC)C(OC)=C7)=O)C[C@@H](C26C(OC)=O)N3C\1
INCHI=InChI=1S/C34H38N2O7/c1-7-20-18-36-24-16-22(20)34(32(38)42-6)27(36)17-33(21-10-8-9-11-23(21)35(2)30(24)33)31(34)43-28(37)13-12-19-14-25(39-3)29(41-5)26(15-19)40-4/h7-15,22,24,27,30-31H,16-18H2,1-6H3/b13-12+,20-7-/t22-,24-,27-,30+,31-,33?,34?/m0/s1
COMPOUND_NAME=Trimethoxy_3_4_5_cinnamate_vincamajine.mgf
IONMODE=positive
SKELETON=Ajmaline
108.082373522037 0.07423498977134908 
110.097509550908 0.03909246869263678 
132.058741186885 0.026777294927508365 
135.045901197438 0.028410530492260277 
144.080992966151 0.07126310941608051 
147.045089502278 0.054718245455730716 
157.08768850999 0.033342447353635556 
158.098412638303 0.043689630558575325 
161.058626527405 0.03037147683710041 
162.069406800885 0.07444275191511673 
163.040805494674 0.09695025808466752 
163.074830377934 0.03197656367980055 
166.086009749207 0.056939349399647135 
170.098125742892 0.03865006195345191 
172.112068680089 0.02513468896178021 
175.039634508098 0.07744703003312 
177.053916163465 0.04556113131411667 
178.064647311677 0.07494643676198713 
181.088396570551 0.03935949229122719 
182.09643373021 0.10614460057610614 
183.095977005239 0.0418150719945072 
190.064818523687 0.23278993136814424 
191.034637471787 0.091217232908398 
191.063136330139 0.058183567937283034 
193.088058854412 0.1447668796189558 
205.053500500744 0.02592707408057044 
206.058620954768 0.07821691305787419 
208.078444133515 0.08687664556528656 
221.082400860068 0.6148717361880384 
222.086519856197 0.0675984103147573 
240.105042500878 0.058223028674927756 
242.116559123834 0.053686553990487024 
246.126191362732 0.027852602373272126 
333.157493328406 0.0410009070247992 
365.185778726047 0.061238290516197474 
367.202768538821 0.07315320089708223 
526.245836713686 0.035252339551815316 
527.250385208696 0.024977033606816478 
529.232984281049 0.07009224076396439 
553.233602519673 0.032296367304710624 
557.226768105365 0.04598830528935217 
571.24329044854 0.05907668252162274 
572.244603869763 0.0341972455335829 
587.274753917207 1.0 
587.482300987121 0.024575682168005007 
587.778716080315 0.06680442125345763 
588.277229692512 0.3243129545090013 
589.278143156715 0.028413954112236583 
END IONS

BEGIN IONS
TITLE=Vincamajine.mgf
PEPMASS=367.201324
CHARGE=1+
RETENTION_TIME=793.356
PRECURSOR_MZ=367.201324
SMILES=C/C=C1[C@@H]2C[C@@]3([H])[C@@]4([H])N(C)C5=CC=CC=C5C4([C@@H]6O)C[C@@H](C26C(OC)=O)N3C\1
INCHI=InChI=1S/C22H26N2O3/c1-4-12-11-24-16-9-14(12)22(20(26)27-3)17(24)10-21(19(22)25)13-7-5-6-8-15(13)23(2)18(16)21/h4-8,14,16-19,25H,9-11H2,1-3H3/b12-4-/t14-,16-,17-,18+,19-,21?,22?/m0/s1
COMPOUND_NAME=Vincamajine.mgf
IONMODE=positive
SKELETON=Ajmaline
105.068434343075 0.028087251286091117 
106.064793537915 0.08399073775677063 
107.070844821127 0.031808930425752856 
108.079844796627 0.11055205834258365 
115.053568315495 0.07295219679879686 
117.060956750694 0.06266146262279038 
118.064632330408 0.04053945405282821 
120.080281304976 0.026121053699526144 
128.057326304239 0.032436447404542795 
129.067262751931 0.025516047791265324 
130.065097091588 0.07056375550542486 
131.07226276944 0.07164147002303625 
132.079372287241 0.06309132142132465 
134.059978089036 0.024612167436530958 
136.074773666101 0.06274833196070709 
142.065761489143 0.03896828636564376 
143.072649178356 0.11426626562108355 
144.080028290534 0.2585032405915422 
145.084323193635 0.047326171805063204 
146.094360358628 0.03167715830558241 
151.062204106893 0.09251768300688701 
152.066373042719 0.045213067401916905 
154.065476404387 0.026446258698272877 
156.079579852025 0.05132507370406178 
157.08748165549 0.10151755171220206 
158.095315604258 0.18608732290137384 
159.09842934393 0.02615569162459269 
164.069883715759 0.06568759026509591 
166.085019681671 0.21431938028908704 
167.073826541284 0.20664038385791528 
168.078124735931 0.09269309270598346 
169.084460101182 0.03349286831143099 
170.0955902035 0.06351664458528784 
171.099673796278 0.030852341222950313 
172.107067012735 0.03280068273236175 
174.091431164879 0.03295004834031583 
180.080551637252 0.047122068249364414 
181.087067521655 0.06130836347143147 
182.095718308515 0.3555736980938399 
183.095464280346 0.10892682111695969 
184.108926607764 0.0513310655160478 
194.095880021706 0.04056000763896349 
195.092626437386 0.06511906040749095 
196.099656489443 0.04445781263054869 
218.094208563488 0.02950902949356059 
219.097502551352 0.02521734044711808 
220.107295583224 0.02814626227903701 
231.101998861254 0.03727852377030592 
232.108458157642 0.03688148864300975 
233.108649387721 0.04107289242190951 
246.123511657526 0.028732481111469185 
247.123522396709 0.03045026915410415 
248.129541728895 0.03381294088158413 
263.152674222829 0.04905537054940858 
308.150828712777 0.029611176758453584 
333.159704797227 0.1466676931523854 
334.162362023429 0.03606579057304162 
367.201324099866 1.0 
368.204308875732 0.24196249746362541 
369.206064360158 0.028389133574438116 
END IONS

BEGIN IONS
TITLE=vincamedine.mgf
PEPMASS=409.2125038
CHARGE=1+
RETENTION_TIME=130.6860078125
PRECURSOR_MZ=409.2125038
SMILES=CN1C2=CC=CC=C2[C@]3(C(OC(C)=O)[C@]45C(OC)=O)C[C@@H]4N6[C@](C[C@H]5/C(C6)=C\C)([H])[C@H]31
INCHI=InChI=1S/C24H28N2O4/c1-5-14-12-26-18-10-16(14)24(22(28)29-4)19(26)11-23(21(24)30-13(2)27)15-8-6-7-9-17(15)25(3)20(18)23/h5-9,16,18-21H,10-12H2,1-4H3/b14-5-/t16-,18-,19-,20+,21-,23+,24+/m0/s1
COMPOUND_NAME=vincamedine.mgf
IONMODE=positive
SKELETON=Ajmaline
103.052126260312 0.2687210375544782 
103.055846670693 0.7654896903268306 
115.054935259182 0.4355208835987347 
117.057360042446 0.36306287675115084 
118.065681296098 0.19244946651654068 
120.080062741664 0.2526479813414831 
121.08828251738 0.20596846588080303 
127.054982598984 0.35108630713021904 
129.068834705515 0.3288960951921383 
130.06519961909 0.33728649172392133 
131.071126987568 0.29593845982980616 
143.07292942356 0.6129612927686758 
143.081433398259 0.3142924163392235 
144.081120382771 0.8374445644431169 
155.074457757517 0.3063815996078341 
158.060214657395 0.4050722098393805 
158.094738387098 0.4184976676853788 
165.067237040188 0.2701271283807073 
166.065654765317 0.5130103135029145 
166.070798373044 0.295534038772337 
166.073860048484 0.1933732009773509 
167.073078512657 0.7765592806207251 
167.082214074221 0.25037818730516176 
168.079988638617 0.3174068606049465 
169.076492135769 0.40595295541411036 
169.088708996732 0.3545627580290601 
170.092182598835 0.41954701777767567 
179.071698091891 0.2318027757990763 
181.07723549107 0.21474729428525471 
191.072072426487 0.30098951032882193 
191.079536251342 0.2594700016084929 
193.087394144475 0.28548153297027357 
194.095736768045 0.35117860398140277 
195.105328494223 0.30049461154897866 
204.080408075345 0.4537075760012868 
205.088888371093 0.35374874575855764 
205.098198475758 0.21752701885000422 
206.096927020023 0.403276538217024 
207.10708949246 0.2723928054413015 
215.077043783169 0.22890700996499616 
216.070573489818 0.27675287422351924 
216.080653288426 0.5570400284933018 
217.088164285013 0.4264567392020344 
217.096570622054 0.21912986281853905 
218.095327159721 1.0 
218.103226337434 0.518742388382086 
220.111164842368 0.4779737968856515 
220.118904680942 0.25473193700835656 
229.077846559287 0.2757033326439793 
229.08765956716 0.6134041070183904 
231.09014206183 0.413744475593036 
231.10705739101 0.22913679465673997 
232.09797520668 0.39632354067572023 
232.105402012468 0.34061808252334236 
232.111687014129 0.3566091821962821 
233.107368575214 0.3245481858498587 
238.083985977816 0.2828426472728387 
241.088321262743 0.20110153036604703 
242.081493752322 0.20680622256945244 
242.09222314542 0.5177423462548926 
242.097032953127 0.2826199476090903 
242.105639048276 0.21449998851076543 
243.091529225312 0.34415255405684875 
245.104466943636 0.30569205404535954 
246.11353259173 0.3007546512251354 
247.120437250973 0.6052562290800187 
256.112805399098 0.22040066790750404 
256.118512185864 0.231701670534709 
257.105595934585 0.3913831698032278 
260.12967058952 0.23768172139372076 
261.136448341713 0.2889134630850893 
743.215978102675 0.21195244222829876 
924.598037064612 0.20417327297655433 
END IONS

BEGIN IONS
TITLE=jerantiphyllineA.mgf
PEPMASS=415.1855087
CHARGE=1+
RETENTION_TIME=305.403
PRECURSOR_MZ=415.1855087
SMILES=CC[C@]1(C=O)CC(C(OC)=O)=C2NC3=CC(OC)=C(O)C=C3[C@]24[C@@]1([H])N(C(C)=O)CC4
INCHI=InChI=1S/C22H26N2O6/c1-5-21(11-25)10-13(19(28)30-4)18-22(6-7-24(12(2)26)20(21)22)14-8-16(27)17(29-3)9-15(14)23-18/h8-9,11,20,23,27H,5-7,10H2,1-4H3/t20-,21?,22-/m0/s1
COMPOUND_NAME=jerantiphyllineA.mgf
IONMODE=positive
SKELETON=Secoaspidosperma
112.075540897439 0.5286192010038439 
112.083243814757 0.09425825625728791 
124.07541647096 0.06366717471210326 
143.072662924126 0.05979965936565415 
154.06485557344 0.4047294152080469 
154.072885023711 0.11525463507132615 
158.060075112989 0.0433297240830662 
170.060753187602 0.10317441474878217 
171.067221317946 0.4342426256867565 
171.076512629057 0.07407625507721097 
174.055185670642 0.05314113751321359 
176.071443761402 0.049240033565249065 
182.060406940285 0.383666754368075 
182.069222872253 0.0953939635483886 
183.067617756579 0.09924306938323077 
184.076076455934 0.04910976583723967 
186.054495956705 0.07341907832566075 
187.062378415932 0.08624081665060537 
188.070436877718 0.09442320236762665 
189.079059465775 0.06549469821634017 
190.085560589725 0.0841533415015 
198.055019915309 0.07248945637062511 
199.062664032269 0.8019023680937087 
199.071650461082 0.16720868991221036 
199.084920207423 0.04350607397120798 
200.070715582396 0.37227118884188987 
200.080182710684 0.046210520743977794 
200.084158865926 0.04429246759069701 
201.078056497171 0.06673938358883504 
202.086000985073 0.31023000602493106 
202.094267006398 0.07800876806506302 
210.054853145277 0.5580892094574292 
210.064227825019 0.10446090099964037 
210.090661561983 0.07883680687994196 
212.069304777166 0.07927727293249119 
213.077712439273 0.07571403995759195 
214.085933476224 1.0 
214.095371823732 0.19928086142502852 
214.108354519158 0.04432177491044337 
214.116545643091 0.040117167005796074 
215.05894195597 0.04160794823852499 
215.094954430383 0.092387764252387 
216.065429364098 0.07907138220014291 
216.100186290553 0.04825292567227799 
217.097350358529 0.07803289892594316 
222.089946014187 0.03936015854754013 
224.070514980808 0.058808970764294415 
226.087325329835 0.09988343237365159 
227.057491014097 0.2726053234235931 
227.0687740603 0.06479914561184187 
229.0983547145 0.05349352592355032 
230.081177255642 0.24860858342505654 
230.092087269234 0.052844094399927766 
234.091282086109 0.04313823402575931 
236.106438709402 0.0661328816451331 
238.085836758623 0.06193088143029061 
239.093336030102 0.04412378508899617 
240.101290657961 0.10532073806184038 
241.058911260329 0.04434185801401458 
241.099031082331 0.03918820670339747 
242.080725429005 0.4047294152080469 
242.091788903681 0.08184938917785378 
243.113096295905 0.05863958768921319 
252.101929393573 0.11558989835458665 
253.096038771617 0.04031387244271256 
253.108678247437 0.039354047990833384 
255.074923035753 0.07166137863500283 
255.088493243356 0.04830072034511801 
255.111133628116 0.04260793889754659 
262.108220222406 0.08951864381448194 
263.095114076647 0.039104449263697376 
264.10163719734 0.09820688243288896 
265.098065406365 0.06513001085110325 
266.116028977062 0.05139842230874736 
268.133839009584 0.0442398078249376 
269.090810978263 0.06737931845107896 
270.111717924983 0.04450641491691978 
274.108004552901 0.05480538849907601 
278.116603200788 0.050537573307220106 
279.111583654057 0.05832024298998491 
280.120392905312 0.15101112199162114 
281.091794120788 0.057679529712873885 
281.103968605993 0.08371482148611853 
281.128942148401 0.09169882817425906 
284.115398286393 0.06254174249724831 
284.128847727763 0.060542850960019046 
285.159260035461 0.044586630568974564 
295.144716483338 0.10986298341509283 
296.129148508289 0.0732233069865848 
297.123165132628 0.06433466546064255 
310.13075136038 0.04178418136443671 
311.14071909866 0.059351837292610815 
313.154535588613 0.04136407086066218 
339.131395407661 0.04672104413456613 
END IONS

BEGIN IONS
TITLE=1,2-dehydroaspidospermidine.mgf
PEPMASS=281.2013306
CHARGE=1+
RETENTION_TIME=211.944
PRECURSOR_MZ=281.2013306
SMILES=CC[C@@]12CCCN3CC[C@]4([C@@]23[H])C(CC1)=NC5=C4C=CC=C5
INCHI=InChI=1S/C19H24N2/c1-2-18-9-5-12-21-13-11-19(17(18)21)14-6-3-4-7-15(14)20-16(19)8-10-18/h3-4,6-7,17H,2,5,8-13H2,1H3/t17-,18-,19-/m1/s1
COMPOUND_NAME=1,2-dehydroaspidospermidine.mgf
IONMODE=positive
SKELETON=Aspidosperma
108.080717270987 0.33165913271191194 
108.086998986861 0.06668959067244444 
109.088747878195 0.5070480406521807 
109.100959029918 0.0630736976649936 
109.107612034029 0.03472528603048914 
109.111830579628 0.030685279171992392 
110.09637173433 0.894397231661315 
110.1035800571 0.19153602269538922 
110.113828464015 0.04772899585372697 
110.120869208245 0.03903691118246719 
115.054111160452 0.04152508027558687 
117.057474379253 0.06468030052685725 
120.079769241731 0.03767412787978926 
122.096882459959 0.07025831592729993 
123.104201223261 0.06616332574742027 
124.112077977518 1.0 
124.119950445085 0.20557240390310813 
124.130947818437 0.04278292857810893 
124.138632698459 0.040913676466003676 
127.053891166427 0.0518509835707828 
128.062107236294 0.2737061445895813 
128.070481048179 0.052690806496866915 
129.069978957036 0.20646859120241917 
129.077869872021 0.04646955762696013 
130.065223148473 0.169397075786389 
130.071945957326 0.04520631605199988 
136.112211116592 0.02719615924182436 
138.127693540106 0.7777809645540419 
138.135197643083 0.17617071421891076 
138.14621796222 0.04342220282445366 
138.150365532576 0.0317058328397294 
138.155492825737 0.035283224740468244 
142.064298489776 0.06161661003211024 
142.078234826396 0.02506796770271534 
143.072923260346 0.21966284253514978 
143.084315614196 0.07859394581787574 
144.081198669891 0.22712370234124138 
153.069490550983 0.026692075318764222 
154.0647478413 0.2959201608629236 
154.074348976281 0.05751095800729494 
155.072966633726 0.24601371699348443 
155.081966379912 0.05900823019609066 
156.080558103839 0.21989734077376313 
156.088800218123 0.039717554634161545 
157.088462351993 0.06769267699597843 
158.096389553424 0.05734654113539296 
167.072565536131 0.07556660535586245 
168.080534481877 0.19898896405524208 
170.096609848463 0.1614077688063098 
170.106444596363 0.029594884184930014 
180.079912080965 0.0377000966424541 
180.08433868225 0.029410767839885277 
182.095715392342 0.04395052529850048 
193.088501823966 0.034390716089409856 
194.096609708344 0.0406962309442903 
196.111637956792 0.029447753842316925 
206.096233179301 0.0251092932630857 
208.110983307412 0.05677781588053746 
209.10778106356 0.03317292764285937 
END IONS

BEGIN IONS
TITLE=11-hydroxytabersonine.mgf
PEPMASS=353.183
CHARGE=1+
IONMODE=positive
SMILES=O=C(C1=C(NC2=C3C=CC(O)=C2)[C@]43[C@@]5([C@](CC)(C1)C=CCN5CC4)[H])OC
INCHI=InChI=1S/C21H24N2O3/c1-3-20-7-4-9-23-10-8-21(19(20)23)15-6-5-13(24)11-16(15)22-17(21)14(12-20)18(25)26-2/h4-7,11,19,22,24H,3,8-10,12H2,1-2H3/t19-,20-,21-/m0/s1
MS_LEVEL=2
INSTRUMENT_TYPE=LC-ESI-qTof
PEPTIDE_SEQUENCE=*..*
ORGANISM_NAME=MIADB
PRINCIPAL_INVESTIGATOR=Mehdi Beniddir
DATA_COLLECTOR=Mehdi Beniddir
SUBMIT_USER=mbeniddir
CONFIDENCE=3
SPECTRUM_ID=CCMSLIB00005463665
PRECURSOR_MZ=353.183
COMPOUND_NAME=11-hydroxytabersonine.mgf
SKELETON=Aspidosperma
105.068428 0.03228405848641244 
106.063446 0.10951094206552914 
107.076088 0.08025771317334172 
108.079346 0.1697522322738258 
115.052589 0.029768923256520894 
117.064018 0.046818858978150094 
120.078972 0.040905694305896224 
122.09446 0.08743788803708752 
127.051666 0.03799531816440101 
129.067856 0.08317545188734066 
130.063248 0.028175315445648517 
132.077682 0.03874493330327872 
134.093872 0.1085608504321051 
136.109985 0.1769313801642136 
144.047134 0.029507254833257116 
145.063095 0.03572634247670248 
146.058945 0.10568853030622659 
154.062637 0.036222726998196904 
156.078049 0.1078734947381465 
158.061218 0.06877659442855884 
159.068069 0.06305714982845334 
160.073318 0.1127085509944925 
166.062698 0.14865394818716993 
167.070129 0.1000461783918479 
170.057556 0.10754188192749248 
171.065765 0.08282924520667913 
172.072159 0.20999106021500583 
183.064957 0.19758364787719926 
184.073196 1.0 
186.086609 0.17238939809876352 
187.084091 0.0430767405159786 
212.067673 0.17820850568252752 
220.073105 0.025273890594736066 
222.086288 0.026443046590603946 
234.087341 0.027443131871418055 
235.087341 0.06602419110336863 
236.095276 0.03603595252598064 
237.102783 0.04672745426535339 
248.099045 0.029313065673884243 
249.10025 0.07546266265002263 
250.107864 0.04403273146327161 
251.114029 0.034635010784018365 
263.112976 0.13622829737736009 
265.129211 0.1618463561364385 
279.144318 0.026345001288152 
291.114014 0.048261084373060134 
END IONS

BEGIN IONS
TITLE=11-methoxy-tabersonine.mgf
PEPMASS=366.194
CHARGE=1+
SMILES=O=C(C1=C(NC2=C3C=CC(OC)=C2)[C@]43[C@@]5([C@](CC)(C1)C=CCN5CC4)[H])OC
INCHI=InChI=1S/C22H26N2O3/c1-4-21-8-5-10-24-11-9-22(20(21)24)16-7-6-14(26-2)12-17(16)23-18(22)15(13-21)19(25)27-3/h5-8,12,20,23H,4,9-11,13H2,1-3H3/t20-,21-,22-/m0/s1
SPECTRUM_ID=CCMSLIB00005723547
PRECURSOR_MZ=366.194
COMPOUND_NAME=11-methoxy-tabersonine.mgf
IONMODE=positive
SKELETON=Aspidosperma
107.070236 0.08466526642430358 
107.119896 0.03437000211893747 
108.075699 0.2051143547667337 
108.120049 0.03872820153586965 
108.172882 0.04597744087956642 
117.051109 0.12210090389752074 
122.092445 0.08527006873293468 
125.326302 0.035809168705331025 
126.050858 0.07381870258383402 
130.062027 0.17186200471426677 
132.084961 0.11852215474158082 
134.090851 0.10394950671276618 
136.109421 0.700732547560879 
136.192841 0.07769198552390257 
136.217438 0.05637802760878532 
136.366745 0.029917869822557782 
137.111725 0.15641019297276387 
137.208588 0.03442506803188414 
142.058853 0.05368632657080577 
147.411026 0.06800868944932906 
153.058716 0.03202144590032844 
154.055847 0.06259103691496151 
154.092438 0.0340772669558891 
155.074478 0.21288179146543593 
155.147415 0.03675278324332713 
157.073013 0.11136179595497586 
157.407822 0.037578189905449144 
158.09227 0.14468906205343232 
158.361832 0.03793179710632048 
160.077789 0.11566931599340338 
161.077698 0.04685691974133109 
161.127213 0.03194078477185126 
166.073242 0.05084714570219677 
166.106186 0.03495741444474832 
167.070068 0.3495978416706031 
167.126938 0.04849421572545965 
172.071381 0.14574736530261592 
172.110077 0.06459136476085477 
173.08252 0.14812886595643382 
173.125534 0.036796422872868086 
174.277298 0.02914829423262653 
174.329834 0.041603681331883816 
174.731598 0.030130806968113023 
182.06604 0.03673190248762895 
183.071289 0.5776287825185864 
183.296936 0.040137001663283 
184.066223 0.14156061692038682 
185.076004 0.29665153339729594 
185.201233 0.0351792254501084 
185.722458 0.07335089075211332 
186.086014 0.2518227058515722 
186.31369 0.0493767765180572 
190.044174 0.12816873452916147 
190.083694 0.11610427424370298 
190.116287 0.05462887783556659 
190.161026 0.039528494223618385 
195.065414 0.05427845335644895 
195.122787 0.03129014388809648 
198.087509 1.0 
198.219254 0.031237560838819407 
198.972153 0.034582800144630145 
199.023804 0.03407787879936629 
200.070831 0.1200408340077902 
200.101181 0.08864552827991089 
200.147659 0.056842774544758355 
201.094955 0.09660688103193912 
201.822037 0.03691779927459156 
204.100449 0.035667209661900574 
210.041733 0.03853174441566625 
211.07222 0.272945070163314 
211.858292 0.038364431487079124 
212.067459 0.08565256317955368 
213.084442 0.03129014388809648 
213.828659 0.040328194942156004 
218.079742 0.07108871661143172 
222.083801 0.1363025590014151 
223.080292 0.05456936860456054 
224.095261 0.07402062370761905 
226.082718 0.4529109530896227 
226.787491 0.06302518741830399 
230.123703 0.040221724239992734 
235.045105 0.13110683103964238 
235.093643 0.10153030599578441 
236.082382 0.11224203287803244 
236.118286 0.05852261281502216 
240.133865 0.09496046417927015 
240.977219 0.039635603741477086 
244.091675 0.04616625634446196 
244.224182 0.03349607527536136 
249.106903 0.05767086139362033 
249.404099 0.03265057998900351 
249.605377 0.04406645779683698 
250.117828 0.11113364931750748 
250.1483 0.050316586553689376 
252.105957 0.12811370410597567 
252.151764 0.04048789744642482 
258.095917 0.04112529355142755 
258.140045 0.03552919849946792 
259.131592 0.036064696403096265 
263.113129 0.11504802940064915 
263.147919 0.09227817644546049 
263.185028 0.04858810743678456 
264.135406 0.11153924475926393 
264.229095 0.032336638984047504 
265.08847 0.05745604754951093 
274.144348 0.051105255634962016 
275.112976 0.07981646932958966 
275.190826 0.04263922854640549 
275.698303 0.036985398751482705 
277.13324 0.3392890669527228 
277.229309 0.037619146509069265 
278.156677 0.17323730818579228 
278.312439 0.029320801442612784 
278.519043 0.047224521264703806 
279.156342 0.19165010165516747 
279.425537 0.03143062797706569 
280.155792 0.11877779032821906 
280.245392 0.04119542131888219 
283.139221 0.028431246327945425 
283.168457 0.029850836762249925 
288.118958 0.03986682663141661 
289.16806 0.032675933874160186 
292.161438 0.14623399522513375 
303.133667 0.12901731316594264 
303.251923 0.044480495542906236 
305.12912 0.1582082490560348 
305.22052 0.028424075976661748 
306.107697 0.05115087985193013 
306.150177 0.03505599222409687 
307.183014 0.16265511467190322 
307.305206 0.03129014388809648 
317.165405 0.10790576897249114 
317.206848 0.03328939710403097 
320.168182 0.041197692663577076 
333.154297 0.04491990137003651 
335.174103 0.17234225641696327 
337.151855 0.07828027657619227 
341.159027 0.032828028793291573 
END IONS

BEGIN IONS
TITLE=19-acetyl-tabersonine.mgf
PEPMASS=395.193
CHARGE=1+
IONMODE=positive
SMILES=O=C(C1=C(NC2=C3C=CC=C2)[C@]43[C@@]5([C@]([C@H](OC(C)=O)C)(C1)C=CCN5CC4)[H])OC
INCHI=InChI=1S/C23H26N2O4/c1-14(29-15(2)26)22-9-6-11-25-12-10-23(21(22)25)17-7-4-5-8-18(17)24-19(23)16(13-22)20(27)28-3/h4-9,14,21,24H,10-13H2,1-3H3/t14-,21+,22+,23+/m1/s1
MS_LEVEL=2
INSTRUMENT_TYPE=LC-ESI-qTof
PEPTIDE_SEQUENCE=*..*
ORGANISM_NAME=MIADB
PRINCIPAL_INVESTIGATOR=Mehdi Beniddir
DATA_COLLECTOR=Mehdi Beniddir
SUBMIT_USER=mbeniddir
CONFIDENCE=3
SPECTRUM_ID=CCMSLIB00005463664
PRECURSOR_MZ=395.193
COMPOUND_NAME=19-acetyl-tabersonine.mgf
SKELETON=Aspidosperma
105.069557 0.06684640804279597 
106.063087 0.07609501923227761 
118.064178 0.02595828020752021 
120.078316 0.05575865747729968 
129.070007 0.09710957274175296 
130.062836 0.12308373731966474 
132.080338 0.039757281382065655 
134.093155 0.09867968221882482 
141.069183 0.032911395848848154 
142.065964 0.03055082254226107 
143.075928 0.025329333289706536 
144.08075 0.1064240251097222 
145.078934 0.02645572298221108 
154.066116 0.07623237225502837 
155.071991 0.0591856145639735 
156.080704 0.2033943293834101 
167.07074 1.0 
168.195206 0.02697834111554478 
169.083786 0.08508056785808044 
170.094757 0.19865451981958218 
183.06691 0.03243833265844531 
196.073929 0.09720510526740696 
206.095047 0.026580968424565202 
208.09935 0.030714926383613683 
218.093185 0.042010840629478435 
219.095612 0.06530013590607832 
220.111664 0.028737125492068936 
228.096481 0.04926741202956767 
231.092865 0.02538642289508539 
232.098785 0.03364682819546047 
233.10733 0.055858937952364504 
234.127304 0.09137596759719413 
245.109711 0.028134786362096615 
246.120605 0.0451398720675984 
247.122681 0.052566792749849676 
248.136459 0.05537038712955103 
259.122131 0.049691821423870665 
273.133118 0.06259660630610456 
275.147766 0.0710504130626085 
303.149902 0.03566750454646036 
END IONS

BEGIN IONS
TITLE=19-hydroxytabersonine.mgf
PEPMASS=353.184
CHARGE=1+
IONMODE=positive
SMILES=O=C(C1=C(NC2=C3C=CC=C2)[C@]43[C@@]5([C@]([C@H](O)C)(C1)C=CCN5CC4)[H])OC
INCHI=InChI=1S/C21H24N2O3/c1-13(24)20-8-5-10-23-11-9-21(19(20)23)15-6-3-4-7-16(15)22-17(21)14(12-20)18(25)26-2/h3-8,13,19,22,24H,9-12H2,1-2H3/t13-,19+,20+,21+/m1/s1
MS_LEVEL=2
INSTRUMENT_TYPE=LC-ESI-qTof
PEPTIDE_SEQUENCE=*..*
ORGANISM_NAME=MIADB
PRINCIPAL_INVESTIGATOR=Mehdi Beniddir
DATA_COLLECTOR=Mehdi Beniddir
SUBMIT_USER=mbeniddir
CONFIDENCE=3
SPECTRUM_ID=CCMSLIB00005463663
PRECURSOR_MZ=353.184
COMPOUND_NAME=19-hydroxytabersonine.mgf
SKELETON=Aspidosperma
105.063797 0.05563928205311954 
106.058876 0.058487054338897476 
108.074165 0.2238254837991306 
115.045891 0.08546757310756721 
117.062904 0.043288827842955034 
118.059509 0.05346897142170011 
120.0746 0.050895221511572414 
128.051102 0.06674201734153096 
129.062927 0.1410087947873241 
130.057343 0.2765144821011752 
132.075241 0.06110461342677185 
134.087097 0.05233755182213766 
141.059479 0.07019881940426495 
142.058853 0.057371493980688755 
143.069717 0.08227575864584484 
144.07254 0.5852714822432392 
150.08287 0.024913548591704054 
154.057877 0.17318555671170527 
155.064392 0.11171106451115052 
156.073135 0.29908934185541575 
158.088287 0.039900203756194 
160.065292 0.034969866244153054 
166.057312 0.02770575149213744 
167.063782 0.32094288882345673 
168.072922 1.0 
168.187592 0.037672936087969774 
170.085953 0.23726919501683752 
171.083374 0.09713756436245394 
180.072769 0.08033451341163454 
181.076202 0.06608757166375268 
182.080261 0.06005566093234477 
183.080322 0.03935491887187364 
184.074234 0.03945578779479759 
191.063538 0.04697162473814387 
192.071671 0.05319351765942524 
193.078293 0.09807836454486082 
194.085999 0.07309317300436331 
195.075485 0.03575284383107461 
196.067261 0.10558971121273178 
204.072769 0.17952925384688717 
206.085526 0.09833008376774142 
207.093369 0.0667912378058619 
208.100235 0.07958529264313642 
217.077652 0.09751868802090224 
218.087067 0.11143988670225577 
219.090652 0.10417226917915542 
220.102341 0.18484287110161193 
221.100555 0.07250997329465556 
222.115463 0.06517119430536338 
230.085571 0.04298424646119539 
231.090576 0.05654897386825709 
232.100067 0.1371399775936243 
233.102707 0.08858886055982645 
234.111176 0.09394954239254333 
244.095352 0.038140368025946406 
245.099838 0.05254617429528881 
246.111084 0.048943150933640184 
247.113022 0.11998162117780463 
248.125015 0.11918054059706838 
249.124741 0.059618631068417076 
252.090042 0.0400980218626704 
260.112732 0.026470935433363207 
275.108063 0.13955964614484054 
277.120117 0.04739126423417078 
305.113312 0.07713667774578649 
321.144348 0.05678605368486679 
END IONS

BEGIN IONS
TITLE=aspidospermidine.mgf
PEPMASS=283.2168665
CHARGE=1+
RETENTION_TIME=215.241
PRECURSOR_MZ=283.2168665
SMILES=CC[C@@]12CCCN3CC[C@]4([C@@]23[H])[C@@](NC5=C4C=CC=C5)([H])CC1
INCHI=InChI=1S/C19H26N2/c1-2-18-9-5-12-21-13-11-19(17(18)21)14-6-3-4-7-15(14)20-16(19)8-10-18/h3-4,6-7,16-17,20H,2,5,8-13H2,1H3/t16-,17-,18-,19-/m1/s1
COMPOUND_NAME=aspidospermidine.mgf
IONMODE=positive
SKELETON=Aspidosperma
103.053938001486 0.05156454532158397 
106.065044761129 0.09851644484259023 
109.088357598624 0.029378469048228457 
112.111889109904 0.03194995246626933 
115.054447928491 0.03945040038026985 
117.057096625331 0.05600017368093897 
117.069740701846 0.08101603349299792 
118.065148753668 0.028238852426048486 
124.112141290411 0.342648360086292 
124.119419988368 0.06950775165453947 
126.127812273592 0.028244579326483603 
127.054400532408 0.05182104464514242 
128.049793798302 0.033293772167172477 
128.062554826938 0.031812749095030894 
129.069944414124 0.08704207649274197 
130.065250992596 0.7633528648213829 
130.07240835921 0.12443777651833705 
130.087429061455 0.03672620571136056 
132.080976563685 0.034166889100149915 
138.127698417739 0.02468193078357527 
143.073044792535 0.20811057991151413 
143.081506434067 0.04310066181578851 
144.080993835425 1.0 
144.088818451294 0.15275892171560204 
144.104807326823 0.056491462210684115 
154.065196427051 0.025591379026655457 
156.080722475957 0.20399722110497642 
156.088631557414 0.041994469633258986 
157.088705324076 0.10421733884237083 
158.096567230888 0.15596443197191853 
158.105009909773 0.03011714322278694 
167.073100431174 0.050782843979670186 
168.080611589848 0.09497696442283082 
170.096368790934 0.07513519689933819 
172.111953303069 0.026892034443672528 
180.080544114352 0.06103577827342864 
181.088512996892 0.042909690482284546 
182.096204726079 0.10175998208343998 
184.111804214219 0.029709573476178287 
194.096154898022 0.04845451387619291 
196.112166789273 0.06898346374638926 
208.111762254391 0.05840419210940071 
209.120038760669 0.038314714431971916 
210.128581714482 0.029330034919009835 
238.159065716631 0.038294114958499395 
283.216247300274 0.03876188343266665 
END IONS

BEGIN IONS
TITLE=Deacetylvindoline.mgf
PEPMASS=415.22
CHARGE=1+
IONMODE=positive
SMILES=CC[C@@]1([C@]23[H])C=CCN3CC[C@]2(C4([H])[C@@](C(OC)=O)(O)[C@@]1([H])O)C5=C(N4C)C=C(OC)C=C5
INCHI=InChI=1S/C23H30N2O5/c1-5-21-9-6-11-25-12-10-22(17(21)25)15-8-7-14(29-3)13-16(15)24(2)18(22)23(28,19(21)26)20(27)30-4/h6-9,13,17-19,26,28H,5,10-12H2,1-4H3/t17-,18?,19+,21+,22+,23-/m1/s1
MS_LEVEL=2
INSTRUMENT_TYPE=LC-ESI-qTof
PEPTIDE_SEQUENCE=*..*
ORGANISM_NAME=MIADB
PRINCIPAL_INVESTIGATOR=Mehdi Beniddir
DATA_COLLECTOR=Mehdi Beniddir
SUBMIT_USER=mbeniddir
CONFIDENCE=3
SPECTRUM_ID=CCMSLIB00005463666
PRECURSOR_MZ=415.22
COMPOUND_NAME=Deacetylvindoline.mgf
SKELETON=Aspidosperma
SCANS=1
102.043213 0.0011235808525567942 
104.055969 0.0035267366958662283 
104.083763 0.0013539017388761673 
105.056244 0.0022992872209044645 
105.064896 0.0011477820793176542 
105.875275 0.001207655973188317 
106.050919 0.0013127343751341745 
107.069664 0.008131886822111295 
107.134628 0.0012348713162390322 
107.166122 0.0010657269224436231 
108.076897 0.0038734180289601685 
111.435959 0.0015560992690886004 
115.050285 0.004570228709477644 
118.059059 0.0010093862778446162 
119.032539 0.015157542172778246 
119.064156 0.0012533981919837039 
119.079155 0.00573219576180169 
120.080963 0.004145780824316837 
121.075836 0.0012946011804525004 
121.086029 0.005144255150930143 
122.092224 0.019758906823902706 
122.166031 0.0010310749176726532 
122.317574 0.0010098190626116443 
123.070358 0.0021338321432991104 
123.09848 0.003848069644248505 
123.979622 0.0010981969126978718 
124.115135 0.0010205002184937207 
125.053963 0.0031902150895475948 
128.051697 0.0018152286612899827 
129.064789 0.0018527828288636458 
130.058624 0.004546921231966379 
130.079514 0.001674326674202219 
131.043243 0.001383244893978409 
131.067734 0.0062429507402237214 
131.096329 0.001487842292532873 
132.044205 0.0011621586743897048 
132.078705 0.0020935468394432297 
133.052261 0.003260821071526936 
134.054123 0.006351782889017875 
134.089508 0.012875847791812571 
135.05275 0.001194916584799253 
135.071777 0.006071861598158466 
135.1008 0.007831803814528741 
135.128296 0.001420582599589013 
136.041245 0.0017296076223379077 
137.043213 0.01675656367130164 
137.061279 0.0019955802323241775 
137.099548 0.001354315667586626 
137.180298 0.0010376313981544983 
138.086639 0.0038189228426209506 
138.891068 0.001295919017026056 
143.067871 0.002605177198115096 
143.084061 0.0011103733329920764 
144.075851 0.009704370612768232 
145.083832 0.02627572717409962 
145.399246 0.000976172482259253 
146.053238 0.002463160337985195 
146.099136 0.0014081112316055107 
147.070358 0.008772401180199636 
147.08017 0.0022917762482306428 
148.104111 0.0031761600911304005 
150.085709 0.00610932148544928 
150.38562 0.0011940351511290413 
151.067215 0.0044938547919947105 
151.07843 0.0017864547364416093 
152.063919 0.0077151888457802536 
152.098831 0.00688190756020757 
152.184204 0.0014397169047575043 
156.075836 0.004426193485919776 
156.18367 0.0012432743682533796 
157.082596 0.04689973867112186 
157.163773 0.0013222430461112353 
157.191971 0.0010753789968619778 
158.058212 0.012809371634119757 
160.071457 0.003529823105302859 
160.103958 0.0011495118267948767 
161.07869 0.014737914967201686 
162.085037 0.031049376970080398 
162.204117 0.0015648244048146157 
162.607605 0.0011346211084682324 
164.061249 0.0037410861543731885 
165.073181 0.003718801078689369 
166.081299 0.0014626197772172795 
167.067398 0.00204125231493867 
168.063065 0.0018174755239422139 
169.917953 0.0019143532111892414 
172.065048 0.010008642030613815 
173.077774 0.1570639986998717 
173.197128 0.0027749352834933335 
173.235703 0.0022978011409922152 
173.358521 0.0013828934476989457 
173.390884 0.0012340705252609407 
173.431 0.0014026422794047992 
173.469025 0.0017857249861784916 
173.561569 0.0011656097502192604 
174.18956 0.0010444112289743114 
175.147705 0.0012317513694619342 
175.899551 0.0011144326036204414 
176.096313 0.00874045039250673 
176.124176 0.0014381034246992053 
178.041885 0.0010900797630320324 
179.048386 0.003203200789524324 
180.094193 0.0014457085384967875 
185.065384 0.0019255457767236742 
185.087692 0.002584391561616077 
185.120102 0.001021399882004601 
186.080215 0.0014498156798517948 
187.051727 0.0011509618645030551 
187.087616 0.003366107446731418 
187.912781 0.0009973065731173198 
188.100891 1.0 
188.222916 0.03847039595629114 
188.263367 0.018193645181230213 
188.299591 0.011090046824771443 
188.332352 0.005024861175172795 
188.345322 0.0029003899854776905 
188.393356 0.010053611429408015 
188.444046 0.009775062873382801 
188.495804 0.0014493717623576402 
188.514755 0.002580241072204823 
188.534424 0.003651352894759355 
188.584686 0.0018134857632788426 
188.597336 0.002010720045420269 
188.613388 0.0013489455879187036 
188.630768 0.0012749248506320557 
188.655487 0.0019231806984252725 
188.680161 0.0017182279574082114 
188.69577 0.0018158090242709768 
188.743668 0.002390885351471014 
188.815506 0.0024952344902105655 
188.854462 0.002509663826577376 
188.968918 0.0010929784468574984 
188.997391 0.002044264483001278 
189.027908 0.0022750576752689775 
189.164383 0.0013127343751341745 
189.196152 0.0018113461922842895 
189.443939 0.0011554963634206167 
189.513611 0.0014882842617997803 
189.624069 0.001071734420319061 
189.665543 0.002148128582735853 
189.713974 0.0017660776710281191 
189.771652 0.0015836332168737567 
189.919205 0.002108734732004597 
190.080399 0.0059139709303171395 
190.119583 0.0026042628533203185 
190.239502 0.0009819768078646388 
190.378098 0.0017766029687304296 
190.415527 0.0019373867540336597 
191.045334 0.002293567364866148 
192.05513 0.0010720544862239372 
192.158234 0.0012551607810059485 
193.066589 0.0019645513040168617 
194.527191 0.001334574559210216 
195.088486 0.0013539017388761673 
197.081482 0.00471664612790187 
198.040619 0.0016011575209611759 
198.082443 0.003443406076361266 
199.067245 0.001439197910934793 
200.058258 0.0015084489704433393 
200.101196 0.012688637278016423 
201.059387 0.0011165917264670097 
202.064316 0.0012627678430307775 
202.077393 0.0056575742051479545 
202.111908 0.0018185386298032145 
202.143509 0.0011600733754398916 
207.065552 0.0013949043382566937 
207.374481 0.0010450666682838624 
208.580093 0.00219305546842834 
210.764954 0.0013000478671989595 
213.071213 0.006795548421447033 
214.102097 0.0012373560713540399 
215.086288 0.0014472544568173396 
215.106903 0.003311617548437586 
216.057617 0.002795517678142756 
216.097549 0.0032628589868069183 
216.186615 0.001030840434607559 
216.938416 0.0011120300219475334 
217.099136 0.0025857587300867108 
218.070328 0.008111290929030233 
218.104172 0.002259016180855214 
218.621552 0.0013893545346252288 
219.075409 0.00276689105319017 
219.09259 0.0010514241512683277 
219.114517 0.0011142391029070804 
222.620132 0.0009822314689976492 
224.079895 0.0015831831068001383 
226.118637 0.0016009090524076294 
227.419708 0.0013491578055295451 
228.09642 0.018884548349677753 
228.183517 0.0010572222147147055 
229.079361 0.0015184712776181823 
233.094681 0.0012524318016896112 
233.114899 0.0015542845649874966 
234.084137 0.00143536818322386 
236.093338 0.0013648083324825477 
238.095596 0.0012505413254645052 
240.102493 0.00145885127950554 
241.088165 0.0013690611038242738 
250.084793 0.0023534389626118407 
251.111343 0.008530918134606791 
252.130905 0.0015774260257054938 
253.123367 0.01947672614607305 
253.26149 0.0013564351300928074 
255.089432 0.0015897958771335149 
256.086426 0.0020113873828319358 
256.106018 0.0014096405899944628 
256.127625 0.001154623766352562 
259.084442 0.0010320963453864756 
265.127258 0.025427191408341442 
265.173798 0.001067208270946844 
265.266571 0.0013062557541626677 
276.084381 0.0013479965925107453 
276.102356 0.002094005507800826 
276.133331 0.002321527209043423 
276.184235 0.0010808020265632937 
277.121796 0.0025752816510087656 
277.879456 0.0010967058230584158 
278.089935 0.0011848109909095975 
278.132446 0.0028558131544737762 
279.143433 0.0028262737850559367 
280.155029 0.0010525896086393445 
281.115448 0.0018395092087316164 
281.153748 0.005847261124513765 
281.775696 0.0012198971024589419 
291.141968 0.0034111240204568152 
293.120117 0.0018838662379543347 
293.149963 0.0026157491141122475 
294.128235 0.0014102062021120146 
294.143707 0.002770767329616399 
295.170959 0.007402379809081187 
295.214905 0.0017750688093529044 
295.823944 0.0015033043980792655 
305.115265 0.0015960663856873075 
307.14035 0.0029956902348704903 
309.158813 0.0011728940327369764 
313.175751 0.001180533101352293 
317.10495 0.0025411025784020224 
321.132355 0.0015786783879276388 
322.154419 0.001024123921173276 
331.121216 0.0011081342632488335 
333.099548 0.000987349044498442 
335.127197 0.005597728838890553 
337.176117 0.005131186164238601 
347.161011 0.0016558115574005744 
349.145477 0.0010275409726055525 
355.177124 0.002935449656800111 
363.149323 0.0015988127598897792 
365.164795 0.0013496386001823051 
378.776581 0.0017514076590167506 
END IONS

BEGIN IONS
TITLE=Goniomitine.mgf
PEPMASS=299.210434
CHARGE=1+
RETENTION_TIME=1049.184
PRECURSOR_MZ=299.210434
SMILES=OCCC1=C2CC[C@]3(CC)[C@](NCCC3)([H])N2C4=C1C=CC=C4
INCHI=InChI=1S/C19H26N2O/c1-2-19-10-5-12-20-18(19)21-16-7-4-3-6-14(16)15(9-13-22)17(21)8-11-19/h3-4,6-7,18,20,22H,2,5,8-13H2,1H3/t18-,19+/m0/s1
COMPOUND_NAME=Goniomitine.mgf
IONMODE=positive
SKELETON=Aspidosperma
105.069366525048 0.031160042194754323 
107.085032037106 0.10639971690992854 
109.100169532675 0.09010671868596039 
110.096935642418 0.02527228830394557 
117.061383187292 0.026944378624012038 
121.100409536157 0.05397681080221545 
124.111630437037 0.6415036024555376 
125.114826947932 0.024622972848884997 
129.068867382678 0.0427660721924475 
130.064614579269 0.13044575488072815 
131.072628377018 0.06069047997652861 
132.080056996063 0.3603551167858527 
138.127148720852 0.0683394662050029 
143.075284710485 0.08597060252944562 
144.080022741219 0.3845422070723246 
145.086631191944 0.04901874799832475 
146.095506433885 0.08645118375994679 
155.072459101266 0.04404725185385923 
156.079915070608 0.20324451680959282 
157.08692234765 0.058474269934445836 
158.095717368214 0.4501960801879503 
159.097968861067 0.025327159401658677 
167.072420396411 0.06517078349208624 
168.079736792754 0.10348572567586635 
169.086966615893 0.033787409210729646 
170.095479918143 0.28578883361963353 
172.10937037215 0.027350823402411194 
174.09053990942 0.444161424050562 
175.095484250728 0.03092740665754388 
176.106052616832 0.10982161294151636 
180.079829329609 0.5857415772865011 
181.086123109665 0.09382429154693943 
182.095083009047 0.1525220772181921 
183.101758777957 0.025587620184501263 
184.110804809881 0.046804643214684846 
188.106007910218 0.2432154911187209 
193.087190410164 0.08113415199518031 
194.095250006683 0.3063668390440335 
195.102697285458 0.18385616157634588 
196.110735412328 0.12763550361589335 
197.117553794705 0.02810081948304707 
198.123105686873 0.029762800083314486 
200.106251268251 0.05116382718067821 
206.095282841365 0.0452622054597862 
207.102739217368 0.09555687445268879 
208.110787615624 0.23152852961135587 
209.117433135578 0.05171679346742784 
210.12662319278 0.5010394153652512 
211.10060431892 0.24852701337734964 
212.106033069664 0.14077925917299178 
220.110938347959 0.09176691653546128 
221.117681992377 0.04136689503494953 
222.126531873236 0.5987390845709192 
223.131700688817 0.08016743523530742 
224.140863473351 0.029722432872490767 
226.126249412016 0.03144196765516763 
228.137177824944 0.04892732603062479 
234.126400773119 0.23161712963688771 
235.133573581974 0.11444144581983019 
236.141827873783 0.09035827467351697 
237.148445684696 0.06029952900441432 
238.1570387522 0.07670419551132024 
239.163456759446 0.06961238608648133 
240.137880266717 0.6717203320933212 
241.142798864302 0.09852833476296806 
249.150124916079 0.03754555084983013 
252.168435128307 0.10470198275031858 
254.154625053708 0.03581066111834016 
264.173477247723 1.0 
265.176219009526 0.08716535909214089 
281.199304965619 0.026251699324301624 
282.183911746404 0.7485954118803765 
283.186824267378 0.06619958297965738 
END IONS

BEGIN IONS
TITLE=Horhammericine.mgf
PEPMASS=369.181
CHARGE=1+
SMILES=O=C(C1=C(NC2=C3C=CC=C2)[C@]43[C@@]5([C@]([C@H](O)C)(C1)[C@@H]6O[C@@H]6CN5CC4)[H])OC
INCHI=InChI=1S/C21H24N2O4/c1-11(24)21-9-12(18(25)26-2)16-20(13-5-3-4-6-14(13)22-16)7-8-23(19(20)21)10-15-17(21)27-15/h3-6,11,15,17,19,22,24H,7-10H2,1-2H3/t11-,15-,17-,19-,20+,21+/m1/s1
SPECTRUM_ID=CCMSLIB00005723548
PRECURSOR_MZ=369.181
COMPOUND_NAME=Horhammericine.mgf
IONMODE=positive
SKELETON=Aspidosperma
107.066719 0.0014206407699292477 
108.078392 0.004125897830053575 
110.057198 0.004072054278928999 
110.093109 0.0020577191257518334 
110.116226 0.0011318090758372721 
115.049789 0.011251401622849523 
116.056831 0.0022582651634488727 
117.062943 0.0037772467780815924 
120.084457 0.0011512629984413692 
122.064598 0.002441821414941442 
122.091362 0.003689153603887056 
123.08757 0.00331676433212016 
124.075562 0.013443809701796133 
124.133942 0.0011541586178345571 
124.173691 0.0011016969769404644 
127.050591 0.0013546376094012854 
128.054321 0.0043338914742164026 
129.067123 0.009937913542201166 
130.065231 0.0060542922551258035 
131.078918 0.0022037955111872177 
132.044235 0.0026791628725860335 
132.083359 0.004369017665858607 
132.480408 0.0010668474011739186 
133.055038 0.00418716340129374 
134.099213 0.0035824329596900214 
136.081741 0.002943977077941248 
137.064102 0.001237535584656094 
139.058151 0.005503988229798299 
140.05835 0.002885128449999596 
141.068146 0.04024467703366898 
141.174789 0.001420606549872127 
142.095261 0.0016863930140512975 
143.078735 0.0012006249137145868 
144.081894 0.00933574411888021 
144.140823 0.0011516013543149605 
153.057938 0.016393117801474347 
153.126236 0.0011354223946019072 
154.069641 0.020204693794611584 
155.067764 0.0053170414046829415 
155.112167 0.001601436888273181 
156.045959 0.001868950228738288 
156.085007 0.005503511352392566 
156.118729 0.0016738245401677959 
157.090683 0.003923275678128909 
158.048523 0.0010084409809086436 
158.384369 0.0011441750398295226 
160.078171 0.0029104135872518038 
161.087997 0.0011213701372429726 
165.069336 0.00154915039471481 
166.070496 0.008656489700041918 
166.143265 0.001082559173917914 
167.072815 0.21114926298584355 
167.183731 0.0056454954281980755 
167.229355 0.0036076505112052357 
167.263351 0.003957918472117967 
167.329575 0.0019511820152777128 
167.420212 0.0011832000696222844 
167.46637 0.0027561152822447362 
167.511215 0.0014733378367222287 
167.634552 0.001170271970368453 
167.813065 0.0015081463349300632 
167.928833 0.0016315946963527256 
168.080475 1.0 
168.197464 0.036021647077880914 
168.38031 0.0034612891909578357 
168.448502 0.0015163946727455811 
168.535309 0.003987763038518272 
168.612244 0.00283459212574896 
168.680847 0.002168714961276915 
168.729294 0.0014501228105733043 
168.832352 0.0015524934604659185 
168.93425 0.0014868604026713728 
168.971405 0.0014391702113844094 
169.085739 0.07431217931833062 
169.177536 0.002744644121033879 
169.259949 0.002116866043770895 
169.30954 0.0010471344448785699 
169.492905 0.0010596980173347048 
169.675537 0.0014653159538445017 
169.987656 0.0015666705918046472 
170.016129 0.0012830729925992804 
170.054764 0.002720741905774685 
170.122162 0.005215321048293675 
170.18222 0.0013016641740523744 
170.238968 0.0013820967994940085 
170.265411 0.0015645598528148885 
170.717896 0.0012465764023358206 
170.742004 0.0014889871050254918 
170.851929 0.0011538996965613643 
171.183945 0.0011926090114775915 
171.685715 0.0018998651949279437 
171.974945 0.0013173622542767991 
172.060379 0.0011243285308802345 
174.106873 0.0019033369119056244 
177.050919 0.0015072348043415097 
178.060913 0.00543606051706968 
179.084824 0.0015739749551798214 
180.076523 0.008547758975985038 
181.075439 0.007194791449266347 
181.145004 0.0012416087157651253 
182.0896 0.012285363032007593 
183.096573 0.0031852329998465793 
184.068146 0.004997807797938388 
185.094025 0.0014874494508162475 
188.072174 0.001750911266923238 
190.079346 0.0014895392800470565 
191.078644 0.0031197383736497283 
192.083679 0.008794413145626541 
193.08046 0.007087338333964931 
194.057983 0.011732027946009572 
194.093719 0.012230939336248404 
194.163712 0.0013759970630704776 
194.528015 0.0013384361660764578 
196.075531 0.11748682886032248 
196.167496 0.00715796327069644 
196.250992 0.001417084469604072 
196.324158 0.0012142191574180672 
196.373627 0.0012590822593605308 
196.469345 0.0010792133651661693 
196.601562 0.001641705216829838 
196.811813 0.0013640910688079056 
198.107971 0.002774707070755348 
198.143768 0.0010631535236282962 
200.104691 0.009405492846777263 
200.415573 0.0012294165051246664 
201.09462 0.002091209859473576 
202.082413 0.0027711051511818824 
204.074615 0.008768386274021902 
204.135757 0.0018665413345727898 
205.087234 0.003327621893082085 
206.088287 0.009128346380363849 
206.139938 0.0017015722624504183 
207.097046 0.005288696405253535 
207.157166 0.0015974476435196797 
207.19902 0.0012629737228864258 
208.106339 0.007556114916859064 
209.038879 0.0012365986475862355 
210.080475 0.002348701017572232 
212.068909 0.001079400856004755 
213.075775 0.002346396424881755 
216.077896 0.00264061935182303 
217.089142 0.003391870814768581 
218.093994 0.021334569392254324 
218.20668 0.0011482702048780926 
218.565552 0.001687902698647494 
219.093521 0.008285714571731523 
219.178986 0.0011171200601092777 
219.418259 0.0013257936086921599 
220.109146 0.020555297615717 
220.21022 0.0011316750060602618 
220.45343 0.0013046981575924215 
221.046143 0.0012613488547471093 
221.116608 0.006365162093191992 
222.139374 0.002467906946289203 
224.10321 0.003178971224032991 
224.160583 0.0010389301074912943 
225.148941 0.0018086941491831767 
226.076706 0.0017705844272257465 
228.102539 0.02635643586890624 
230.049896 0.0014481420718268241 
230.095154 0.005611468797589692 
230.198944 0.0010454879475047265 
231.107513 0.007240629395648121 
231.158798 0.0014989072117944874 
232.097794 0.004504506338640582 
232.443497 0.00117140986596035 
233.105652 0.006327931840192725 
234.114288 0.0070599213456115075 
234.345474 0.0010301581713247764 
235.119781 0.004249107932642266 
236.122162 0.0030587088128823576 
236.482895 0.0010568017234331634 
238.109421 0.002540733545736487 
241.093033 0.001921144269685043 
241.129898 0.001227605157909294 
243.095551 0.0014281776363337798 
243.769135 0.0014988077218123861 
244.113174 0.00241227340738044 
244.154388 0.0011396380718095877 
245.096954 0.0013715003182320068 
245.134598 0.001149826048329262 
246.094513 0.006413313018651433 
247.000305 0.0012118963754856648 
247.125809 0.023702200486759924 
248.097275 0.004059589072274376 
249.141098 0.0033826593239918764 
249.828659 0.0014965998985869856 
250.103424 0.0026517103601260074 
251.110397 0.003777635812016123 
252.11441 0.003542542513196455 
253.135223 0.0015863722388432737 
255.085495 0.0021939652938980955 
256.077393 0.001236894554400797 
258.098694 0.0034026539324919216 
259.126282 0.0010701207452449147 
260.072205 0.0033167533376340028 
261.108246 0.006087756952825112 
261.189636 0.0014785252781144061 
264.110931 0.0032883472727150164 
265.124573 0.004078846443144343 
266.115723 0.00685258878708568 
268.121277 0.0012912016726329357 
269.136566 0.0016602371539659066 
272.130219 0.001559175994590251 
275.109863 0.004438934840975074 
275.1586 0.0024712052471692687 
276.098724 0.002530663180990004 
277.091278 0.0012178320489940786 
279.124756 0.0011278557598953859 
280.134521 0.010067037171940673 
281.122375 0.0011216824121269059 
291.138245 0.0022144196248080903 
292.109192 0.0016593709053714665 
299.280823 0.0017424799125078773 
305.134216 0.00128617505651578 
310.137787 0.0014013798916158446 
319.138733 0.005860175563600907 
337.148041 0.004145143869183207 
END IONS

BEGIN IONS
TITLE=jerantinineA.mgf
PEPMASS=383.1968384
CHARGE=1+
RETENTION_TIME=125.143
PRECURSOR_MZ=383.1968384
SMILES=CC[C@]1([C@@]23[H])C=CCN3CC[C@]42C5=CC(O)=C(OC)C=C5NC4=C(C(OC)=O)C1
INCHI=InChI=1S/C22H26N2O4/c1-4-21-6-5-8-24-9-7-22(20(21)24)14-10-16(25)17(27-2)11-15(14)23-18(22)13(12-21)19(26)28-3/h5-6,10-11,20,23,25H,4,7-9,12H2,1-3H3/t20-,21-,22-/m0/s1
COMPOUND_NAME=jerantinineA.mgf
IONMODE=positive
SKELETON=Aspidosperma
103.054224098968 0.04589256697537277 
105.069718844223 0.066370389531052 
106.064995906797 0.28506254153498156 
106.071476004288 0.0586431424455522 
107.072800880469 0.16734312332054205 
107.084307876197 0.041298849610001145 
108.080363092896 0.3800643095664952 
108.088864622174 0.062007273007456 
115.053142769792 0.0443767654517011 
116.062255086887 0.04280917505163065 
117.057616358089 0.04208371801204463 
117.069192384199 0.037332597685461 
118.065698419758 0.0649040378537611 
119.072643715169 0.07658457588570124 
120.080562492731 0.11668633745048479 
120.085009962845 0.02966396394041252 
121.088570716901 0.11187195324141404 
122.096278684527 0.1639367251103128 
122.102899951143 0.03440179307289381 
127.054557518275 0.08686329195084735 
128.049554561108 0.07674968388697258 
128.062543223524 0.027624357282707554 
129.069938240415 0.04564661108947891 
130.064487509016 0.17124231387856584 
130.071589783588 0.041184099549117566 
132.044351005249 0.0337802990381083 
132.080243550005 0.046897001501106914 
133.05224141158 0.02842939637890635 
134.096498468838 0.23441109415696543 
134.104724178619 0.04602501111039259 
136.111987652284 0.3350233971796802 
136.120237443026 0.06311454229998198 
142.065291258788 0.11067299397218207 
143.072882656656 0.11323607554791779 
143.079372082525 0.04885020163814656 
144.080825676817 0.06204169802572107 
145.087948030109 0.06533268574306168 
146.06064950237 0.05409565532053655 
146.097192010951 0.054298160284095835 
147.067795121827 0.07893381508179038 
154.064777601259 0.8234508397805715 
154.071652824443 0.15926213234231842 
154.083360701268 0.036377943222110166 
154.092802787345 0.039691908469627696 
156.043812664128 0.039026908476507194 
156.080261696101 0.205911169143516 
156.088720713231 0.04876528108949267 
158.059319997734 0.160424024865265 
158.0673142867 0.037994268000555866 
158.097996052394 0.035093100274216874 
159.066937066467 0.061228733745461256 
160.074989821134 0.061060571246166394 
161.046608104851 0.05677255134514866 
161.058721662175 0.04927618028142659 
162.054163720536 0.028269159063672528 
162.092597121486 0.028583607252093777 
170.0597857353 0.18608725682687188 
170.068922727804 0.04166387588281185 
171.067682626458 0.6024700156990191 
171.077739417848 0.09428563959399942 
171.087015408449 0.03113969925577569 
171.09717290484 0.03086859191768816 
172.075233151694 0.16438928614179749 
173.082916788904 0.11283959620086488 
173.091383512581 0.03208232835303393 
174.054686858377 0.2167032059846147 
174.06499937233 0.04709923128466408 
174.079855248677 0.03692973416235895 
174.09103544367 0.07394672790338981 
175.062801536595 0.07269724558576879 
176.070446936065 0.09571239286898543 
182.059965233557 0.6252362076343189 
182.0676393767 0.10996234161671004 
182.082310191734 0.0348133247660626 
182.092505676584 0.027991584995535206 
184.037112115699 0.04108528241035667 
184.075747988441 0.25044165014440073 
184.083401017208 0.035178653736875634 
184.087701501797 0.028479176441289663 
185.046393618039 0.07558696582401964 
186.055440275453 0.1688081266158226 
187.026629543565 0.03404169252212103 
187.061864623483 0.2695687516596794 
187.070935626565 0.05453481508591808 
187.083676808089 0.03151705359268132 
188.071096989054 0.15373668300777246 
188.080577342535 0.037080395213519045 
189.078128820203 0.04967904380452864 
190.086155813017 0.10767895299512793 
198.054863923396 0.10393455118829605 
199.062534573109 1.0 
199.071395196654 0.2145311001558895 
199.084683886389 0.04506017498696335 
199.095889762063 0.04635572243693906 
200.069741071384 0.26889783529651334 
200.079470377534 0.0652019752420552 
201.041354458608 0.0480957406263372 
201.078507376536 0.460241030163856 
201.089349447912 0.07339617527315055 
202.04996803989 0.20651664770217817 
202.059501811771 0.03980134755647038 
202.086209564247 0.2343234768442908 
202.096406776839 0.041665829660826895 
205.087700174753 0.030937194292216395 
206.080203083449 0.031705909628135506 
210.054736338009 0.35123425110450374 
210.064878488316 0.06065699225505884 
210.091097429099 0.040711670521479865 
212.070084537007 0.04786943259259463 
213.065238711241 0.03633958312981479 
213.077603185576 0.039637340275207524 
214.073414511704 0.04385640006769428 
214.085547207257 0.5722524996663443 
214.096396226308 0.10048186770171039 
214.10798136578 0.0285151424675666 
215.08118350292 0.047570944844296276 
215.092799798176 0.0471520383270707 
216.065579809149 0.10967073336846465 
216.101179389145 0.1961173477601036 
216.111599893309 0.038883814875405376 
217.097431917263 0.034743016275521225 
220.074817887696 0.0321338695674308 
222.091383794188 0.03827123667268852 
226.084132454274 0.02865873139267223 
227.05705334125 0.26531229490490466 
227.066210020993 0.06349288728489524 
227.080069553205 0.03440911286095017 
229.072164074644 0.045140720173583546 
234.092478588558 0.03859746256520046 
234.128973111643 0.03541913354072733 
237.101909563151 0.028888231514439387 
239.079674832054 0.05539533047054405 
239.118964411582 0.03447611919146612 
240.102385810772 0.02768332835716163 
241.060107418006 0.05707318549746353 
241.069799272814 0.036187958948647285 
242.080451700976 0.14318740996454304 
246.089536446729 0.028792331283700952 
248.106004951927 0.02851833455559118 
250.071480124305 0.029459147464835436 
250.086027209545 0.16415486029799245 
250.096361227458 0.03129443297096713 
251.117542439629 0.10422266465051452 
251.128826682516 0.06291605496445363 
252.100518388958 0.05094041389824119 
252.125718503122 0.04799975784159814 
253.106451495131 0.029334380851874734 
261.102151676324 0.0318091296469303 
262.08693501268 0.03403935349210302 
262.122763619872 0.032594053084974206 
263.117706005645 0.06890683368258262 
264.087050782896 0.051347625265376715 
264.101480655627 0.10946660484289286 
264.112832769502 0.030620792325780105 
265.096453710601 0.22042606119728067 
265.106498748618 0.060234013073801905 
265.132072018968 0.02759284917246494 
266.117063346271 0.04848927554736743 
267.1099035611 0.06421471194845328 
267.120145619308 0.030761822076866036 
276.102298946903 0.03655716795749019 
278.104980659693 0.12663343409507746 
278.115044633633 0.0591296882072986 
279.112421503139 0.43065037417600793 
279.123524011671 0.131743636806426 
279.136195678952 0.03310244813888885 
279.148796549959 0.04549030884827538 
280.096211009736 0.037994405590556925 
280.119428815339 0.2165800629336665 
289.133039076167 0.030059342567456942 
293.091138411599 0.031186314748134627 
293.127795432997 0.3533966155611539 
293.144050659157 0.03655259996945502 
294.147959684582 0.058595453751184995 
295.143677135884 0.11914529091341874 
295.15374577869 0.03773906606659081 
306.100326489308 0.06153498156981936 
307.106764585703 0.06927130959538909 
307.119045991314 0.033995407245764636 
307.144149125553 0.04230867766377682 
308.152487218614 0.0441980910763253 
309.15893160405 0.04654545904840003 
321.123105652219 0.2318378584391515 
END IONS

BEGIN IONS
TITLE=lochnericine.mgf
PEPMASS=353.186
CHARGE=1+
SMILES=O=C(C1=C(NC2=C3C=CC=C2)[C@]43[C@@]5([C@](CC)(C1)[C@@H]6[C@@H](O6)CN5CC4)[H])OC
INCHI=InChI=1S/C21H24N2O3/c1-3-20-10-12(18(24)25-2)16-21(13-6-4-5-7-14(13)22-16)8-9-23(19(20)21)11-15-17(20)26-15/h4-7,15,17,19,22H,3,8-11H2,1-2H3/t15-,17-,19-,20+,21-/m0/s1
SPECTRUM_ID=CCMSLIB00005723549
PRECURSOR_MZ=353.186
COMPOUND_NAME=lochnericine.mgf
IONMODE=positive
SKELETON=Aspidosperma
105.067451 0.001423293861883408 
106.062714 0.002381723100149477 
107.07135 0.007231384295366219 
108.078407 0.0736841274289985 
109.070747 0.009412358697757847 
110.093231 0.0035737457961136023 
115.051559 0.014275144805979073 
117.06041 0.0020277924723467863 
118.062256 0.0027704275270553067 
119.071274 0.0012079533644245141 
120.078827 0.0014403485261584455 
122.093895 0.028938181988041854 
123.077499 0.0017358379461883406 
124.072578 0.003401514037070254 
124.108757 0.011901052176980568 
126.08857 0.0032929237901345295 
127.051498 0.0024183114959641255 
128.052887 0.004364915277130045 
129.06636 0.0038965699156950674 
130.06279 0.007698068478923767 
131.070908 0.001301296828101644 
134.094498 0.0042122679019431985 
138.088776 0.013813590713901345 
139.052917 0.0034353512705530644 
140.051254 0.004164056077130045 
141.067596 0.05631986173393124 
142.064026 0.012285315069058295 
143.075363 0.004373672225411062 
144.078186 0.010216233417638266 
151.052261 0.0018656993004484304 
152.051331 0.0015878099019431987 
152.104462 0.011176143263976084 
153.056091 0.009280017983856503 
154.062866 0.03537377615844544 
156.078506 0.010205446562032885 
157.085358 0.0027396668298953664 
158.09108 0.0016087162218236175 
160.073547 0.0009564472101644244 
166.063263 0.01003145553064275 
167.070999 0.2517894245142003 
167.184418 0.007455683039162929 
168.078842 1.0 
168.192337 0.06299402092675635 
171.091003 0.0012018218218236172 
178.065125 0.0018223019724962631 
179.075027 0.0010728370379671152 
180.079391 0.0064996111264574 
181.067871 0.006311138943497757 
182.088943 0.006468113555754857 
183.089005 0.0037803385417040356 
184.080948 0.0024887533279521674 
185.082932 0.002729164038863976 
186.091553 0.0017023694415545592 
191.072006 0.0013630457949177879 
192.080383 0.001708341362032885 
193.086456 0.004554641080418535 
194.089264 0.0077084962397608375 
195.088989 0.005910205296860987 
196.075012 0.109310855754858 
197.09201 0.0037859097650224213 
198.092102 0.0015519157560538119 
200.105698 0.007372711720179372 
204.079712 0.0024308424418535124 
205.085159 0.00228882631509716 
206.092636 0.006007766956053812 
207.096191 0.006253602625411061 
208.106613 0.009209769712406578 
209.107178 0.004447190886696562 
210.120789 0.0019462702319880418 
213.077744 0.0017553446726457397 
214.085953 0.0016932328161434976 
217.088348 0.002154373073243647 
218.09375 0.002566072846636771 
219.096161 0.003553654299551569 
220.105408 0.003594003118086697 
221.107483 0.005024895482810164 
222.119431 0.005939413420029895 
223.104935 0.0016428214624813154 
228.101196 0.01363174280657698 
231.097504 0.0013461506798206277 
232.106812 0.0024421596191330345 
233.108093 0.002828499860089686 
234.113281 0.0034496987109118088 
235.119446 0.004522018053811659 
236.127121 0.002701754893273543 
237.120224 0.002646438831091181 
238.116638 0.0013455079587443945 
245.107224 0.0048891789865470854 
246.118423 0.0027224518869955155 
247.122452 0.005317477111509716 
249.132782 0.003272336568011958 
250.12735 0.0015067766720478326 
259.121429 0.0016313638594917788 
260.127625 0.0016131419910313902 
261.127716 0.0010058565285500747 
263.124207 0.002824311589237668 
264.130554 0.002000420257698057 
265.144409 0.0015329644585949178 
275.15213 0.0033846015509715996 
293.165222 0.01735791876890882 
321.161682 0.0015858122547085204 
END IONS

BEGIN IONS
TITLE=pachysiphine.mgf
PEPMASS=353.1861496
CHARGE=1+
RETENTION_TIME=229.159
PRECURSOR_MZ=353.1861496
SMILES=CC[C@@]12CC(C(OC)=O)=C3NC4=C([C@@]35CCN([C@@]25[H])C[C@H]6O[C@@H]16)C=CC=C4
INCHI=InChI=1S/C21H24N2O3/c1-3-20-10-12(18(24)25-2)16-21(13-6-4-5-7-14(13)22-16)8-9-23(19(20)21)11-15-17(20)26-15/h4-7,15,17,19,22H,3,8-11H2,1-2H3/t15-,17-,19+,20-,21+/m1/s1
COMPOUND_NAME=pachysiphine.mgf
IONMODE=positive
SKELETON=Aspidosperma
103.053921212195 0.03386383534828321 
105.069434538403 0.05434968351398604 
106.0654253488 0.08650819750979646 
107.073386374686 0.1575476254066299 
107.080271184445 0.024581721119258156 
108.080512216401 0.6215967537650047 
108.087347613186 0.1114505097366325 
108.095797356015 0.025030737484558918 
108.104622255246 0.02865002985569552 
109.088430273742 0.1080615852416278 
109.095853020656 0.025300600124897307 
115.055379500233 0.03415954946249972 
116.049163545529 0.028436425747301552 
117.056728612835 0.0681467688003876 
118.06536044452 0.03980900175614838 
119.084487812719 0.04583101480819036 
120.080321086583 0.03799325929955058 
121.088525333429 0.0368684405942046 
122.096347489761 0.45069430622363194 
122.103699585017 0.09929355206915418 
127.054250549362 0.09687244481584296 
128.049941519048 0.05384696600048254 
128.063058255151 0.04607545220527424 
129.070114880712 0.129677226106743 
129.076297671492 0.02743594907287019 
130.028603518078 0.1004519217722122 
130.064986703909 0.6636054965762732 
130.072433109781 0.14539625957210356 
130.081921352453 0.030308931173921257 
130.091276305216 0.031379610769322816 
131.048789011616 0.030877890400856214 
132.044342949147 0.03905985646585991 
132.080345208189 0.07666833118197663 
132.085875191575 0.03724258505353887 
134.096161134334 0.10581593641108342 
135.104976614452 0.03846707133810216 
136.112535701833 0.16627534263663138 
136.119857520818 0.04518928354542543 
138.054266353623 0.028610218351300846 
140.049385269464 0.02967921648644411 
142.065856525317 0.05347035800635123 
143.073388130615 0.05871702236068418 
144.080981435639 0.07526173102032183 
146.061017259942 0.0484299267078846 
153.068421856396 0.02618230704950258 
154.0653184311 1.0 
154.073063542424 0.19429253732744017 
154.086957623285 0.04242640971868388 
154.09490025799 0.04347568002358737 
156.044320428666 0.38637614422392985 
156.08018503232 0.4298207367846022 
156.087867357071 0.06856619537551505 
158.059818274804 0.7053010185347756 
158.080722156191 0.03011231372450877 
158.089391184494 0.031535423479676424 
160.075750782098 0.07428253459408964 
166.065049585825 0.14842859718116874 
166.074985977107 0.026086104060491902 
167.072642081664 0.24054903978843323 
167.081802479412 0.06683585545854791 
168.081079523952 0.17241967214653262 
168.090583701706 0.026810973757097817 
169.087150204201 0.030890880658944724 
170.059829346158 0.06702417900747702 
170.094453761091 0.03277740477167138 
180.080184861488 0.18193779300911392 
180.090157661131 0.0317067447281333 
182.059973924642 0.3014628313209904 
182.095937236173 0.03283928641954936 
184.038954968516 0.09024264253601746 
184.075355795347 0.427985989916713 
184.084186147274 0.08059035678631496 
186.05511873712 0.17452161478058312 
186.065639098131 0.03700908887925199 
186.091868344083 0.09546412409020291 
191.072409482637 0.031302017243961505 
192.080809855431 0.09273116461456825 
193.088408436105 0.06985712671288989 
194.058408206421 0.0380408172522515 
194.061235731172 0.030150666659888692 
194.096359088079 0.1490093657336387 
194.108280305039 0.03196609237629829 
196.075847113067 0.029019728221277043 
204.081131145327 0.06628746479198186 
205.087198816733 0.03766871400746334 
206.096366250263 0.05066752017067995 
207.104377157581 0.047838756564049366 
208.074634360709 0.07837399664724645 
208.110732944249 0.03566691210772608 
209.107568480253 0.06765535226396893 
212.070697655787 0.04681779735744834 
214.085812521245 0.09926391144413584 
216.063492842557 0.03375909601568216 
217.090815687899 0.06680969506522698 
219.091624123923 0.0288580264896467 
219.103914346487 0.02769423701003519 
220.076299159215 0.028537723951932135 
221.109469638762 0.0266136915443274 
221.118128007591 0.03541210831263117 
221.122890166646 0.0293757285513125 
222.092132828614 0.0335540673546055 
231.102421165032 0.0281933999947601 
233.1078928991 0.025713883504522934 
234.092474821325 0.02776015416253308 
234.127102172831 0.03913450157021016 
235.136007213899 0.027549623607076367 
236.144121136807 0.04363240776115131 
241.095594458601 0.08133098137450383 
241.106342729247 0.029415778588441487 
250.120525630364 0.031169662859397467 
252.102348765709 0.13625588071173475 
252.112691253154 0.04740067751117292 
293.165838279662 0.02926696935558231 
END IONS

BEGIN IONS
TITLE=Tabersonine.mgf
PEPMASS=337.1920474
CHARGE=1+
RETENTION_TIME=1093.774
PRECURSOR_MZ=337.1920474
SMILES=O=C(OC)C1=C([C@@]23[C@]4([H])[C@](C=CCN4CC3)(CC)C1)NC5=C2C=CC=C5
INCHI=InChI=1S/C21H24N2O2/c1-3-20-9-6-11-23-12-10-21(19(20)23)15-7-4-5-8-16(15)22-17(21)14(13-20)18(24)25-2/h4-9,19,22H,3,10-13H2,1-2H3/t19-,20-,21-/m0/s1
COMPOUND_NAME=Tabersonine.mgf
IONMODE=positive
SKELETON=Aspidosperma
105.069489605521 0.025485648121317782 
106.065411706341 0.23750254667205972 
107.073379267828 0.07903162533539895 
107.080698130092 0.027281373058031858 
108.08100110787 0.16062214675642103 
110.096671041315 0.02819870076409124 
115.05424192788 0.21099015207142274 
116.055539008064 0.0501723253072586 
117.060884386748 0.07883986466342405 
118.065142886459 0.06618006360556188 
120.080854122363 0.05802969733288006 
121.087855268787 0.03049454728385849 
122.096380290341 0.10863134524628186 
127.054124490003 0.08061177485566867 
128.059238729105 0.20884096996390747 
129.068777678469 0.15842779669401638 
130.066145654644 0.16996163711133003 
131.070547175744 0.030533621149596145 
132.080320392521 0.030609510483326993 
134.096470862503 0.10026843865253715 
136.112054208727 0.298263363829669 
137.115317312442 0.037133639192879715 
140.054973965876 0.0339544723743587 
141.069491982086 0.1136338157422272 
142.067577664042 0.0923618359459251 
143.077039801265 0.09063511760695872 
144.080864349756 0.14127580353851493 
153.061694919522 0.038012036423534415 
154.065248062232 0.2521452090003722 
155.071984192732 0.14923480346263757 
156.080369689174 0.23057117746764308 
157.084919434025 0.047838970266222074 
166.065487647593 0.062444136022459705 
167.072848770361 0.6487714734491887 
168.080303199119 1.0 
168.196965499039 0.04722257107231473 
169.083803735057 0.21187164414343096 
170.095373640883 0.23632973324020926 
171.096886638452 0.05862003533376789 
180.080682652302 0.03227484581058257 
184.084038146702 0.028750359222657108 
196.076218492239 0.17512058230814223 
197.080541086971 0.03386363459841446 
204.081088228471 0.04099841493936083 
205.085642470403 0.02771712433077043 
206.092347386309 0.035906492774023406 
207.097398030022 0.024676795202159457 
216.101985819794 0.030543933304376453 
217.08826998171 0.028621427414917255 
218.093646215686 0.04549524332443318 
219.095017910267 0.07499334728600934 
220.102789205951 0.03855288086115454 
221.110973233167 0.02799665183572487 
228.102106074188 0.16832674833144437 
229.105518851822 0.034631083558924164 
231.099047355934 0.034604173973101164 
232.103530839801 0.046075364764096016 
233.108611568207 0.07414311430659123 
234.116294432445 0.040334565494430784 
235.123052923496 0.03061222295045924 
247.123023206537 0.06280552745835258 
248.133176354724 0.037980992416443767 
249.139375918454 0.12250576996725322 
250.144105089505 0.03329468565552982 
275.127472528575 0.026240693818024526 
277.168180270242 0.06479535510914693 
278.168823499017 0.026370569612123175 
303.149800186003 0.024753090808500418 
305.165392557558 0.20769217441283153 
306.1690012351 0.06396739542811872 
337.192047364134 0.06324524586363699 
END IONS

BEGIN IONS
TITLE=vincadifformine.mgf
PEPMASS=339.2066667
CHARGE=1+
RETENTION_TIME=257.592984375
PRECURSOR_MZ=339.2066667
SMILES=CC[C@]1([C@@]23[H])CCCN3CC[C@]42C5=CC=CC=C5NC4=C(C(OC)=O)C1
INCHI=InChI=1S/C21H26N2O2/c1-3-20-9-6-11-23-12-10-21(19(20)23)15-7-4-5-8-16(15)22-17(21)14(13-20)18(24)25-2/h4-5,7-8,19,22H,3,6,9-13H2,1-2H3/t19-,20-,21-/m0/s1
COMPOUND_NAME=vincadifformine.mgf
IONMODE=positive
SKELETON=Aspidosperma
108.080860111696 0.10012003077678515 
109.088486562638 0.1511068007689595 
109.095336055316 0.027301480039953294 
110.096558000863 0.32516311137390214 
110.103305445123 0.054264757261418294 
115.054275699912 0.0320441090097691 
122.096639739289 0.12992340642874586 
124.112207792332 1.0 
124.119480748112 0.11252487631275446 
124.137740056586 0.05281743654095755 
129.069662547495 0.03776387790122309 
130.065161361653 0.07907941127073219 
136.112296666429 0.03228581392008619 
138.127897457909 0.3488304065697459 
138.135438928923 0.061004672720573805 
141.069879068536 0.03621539213943028 
142.065263882892 0.047024981980593274 
143.07305502229 0.03481201477837855 
144.080905889602 0.08006979664774944 
154.065214650848 0.08670116839377984 
155.07314625947 0.036631753004795646 
156.080935306941 0.08032338302734579 
157.08878818681 0.037216294999626955 
167.073067511408 0.25440411391354567 
167.08122319441 0.04337648349921924 
168.081049838093 0.3732635060095913 
168.089364365024 0.06305305117117105 
169.088078344193 0.028024179036486793 
170.096503799465 0.11079169368619052 
170.104470334056 0.03675802853721858 
180.080712869105 0.10102131335099175 
181.088722881286 0.07532024914602967 
182.09624042749 0.14568883434405253 
182.104615019614 0.02784539825600409 
193.088610759069 0.05986988558621657 
194.09667529966 0.16859887075097788 
194.105410097579 0.028000070993011463 
195.103548505203 0.05570770665293259 
196.076182175134 0.029621012353770012 
196.111541096367 0.027129338420727598 
205.088672678037 0.05208803264889716 
206.096162839334 0.0786875364208939 
207.104102273111 0.14890646111998707 
208.11212772066 0.11199244516036368 
209.119710986035 0.04301614466535176 
210.091233594365 0.03838565835993654 
210.127561948291 0.03369070316934496 
218.096226242204 0.03625493130275791 
220.112285411958 0.10340421350096449 
220.121995905118 0.026276995010440247 
221.107435783288 0.06346080084718327 
221.119115932622 0.05893115091175077 
222.115697398081 0.03247959854766704 
222.12750426433 0.1343378899233637 
222.137707711831 0.025746108613391452 
232.112164601035 0.039625324521873576 
233.119556412391 0.03019099420782481 
234.127952497152 0.0383841957724319 
235.099214455792 0.027267429688159914 
235.122927410056 0.068768498034381 
236.143435733575 0.0744095994383664 
237.138670195541 0.03437330426125691 
246.127648879861 0.03246812791757449 
248.106904788458 0.02629758627047746 
248.14330561402 0.026232722979681867 
249.114392061685 0.03923341680490036 
249.138706851261 0.1204535631753991 
249.148406083194 0.02681535868068691 
250.122357994046 0.04980499928842653 
250.158634342958 0.03292138214190517 
251.154333571147 0.025846468409917594 
277.133815135275 0.050752262984408165 
279.185314374156 0.04447671084119159 
307.180574479844 0.0998689587330114 
307.191993151643 0.025308679914532305 
END IONS

BEGIN IONS
TITLE=vindoline.mgf
PEPMASS=457.233
CHARGE=1+
SMILES=CC[C@]12C=CCN3[C@H]1[C@]4(C(N(C)C5=C4C=CC(OC)=C5)[C@@](C(OC)=O)(O)[C@H]2OC(C)=O)CC3
INCHI=InChI=1S/C25H32N2O6/c1-6-23-10-7-12-27-13-11-24(19(23)27)17-9-8-16(31-4)14-18(17)26(3)20(24)25(30,22(29)32-5)21(23)33-15(2)28/h7-10,14,19-21,30H,6,11-13H2,1-5H3/t19-,20?,21+,23+,24+,25-/m1/s1
SPECTRUM_ID=CCMSLIB00005723550
PRECURSOR_MZ=457.233
COMPOUND_NAME=vindoline.mgf
IONMODE=positive
SKELETON=Aspidosperma
103.048592 0.0013455484222653876 
103.054802 0.0024220290543011712 
104.052139 0.0025157171761117174 
105.069916 0.0031494187884245173 
106.062302 0.002898764483467021 
107.066658 0.0011252820155607144 
108.080505 0.006053383399759409 
115.042915 0.0022784455075896617 
116.058777 0.001396972105737652 
117.072899 0.0025558353718072146 
118.064819 0.00186689406619625 
119.035919 0.046448376015515234 
119.079399 0.0019816779169924453 
119.136169 0.0016866760478795248 
119.164665 0.0012807025989975966 
120.07872 0.0013503593461067062 
121.063438 0.004191685378269277 
121.088066 0.0011161052079117246 
122.096336 0.016104240155654273 
122.102203 0.004536781418951589 
122.197121 0.0009675720328461159 
127.05265 0.001549678149127373 
128.046799 0.0019766526763538477 
130.06601 0.003609350309761568 
131.073624 0.002870642248039559 
132.056274 0.002467080742482638 
132.065659 0.0009551973470268694 
133.059677 0.015985886391618517 
134.059525 0.012570522546199992 
134.087341 0.006866938399124976 
136.108871 0.0030609593274193883 
137.078018 0.0009783649116414418 
137.115768 0.0014303072350628006 
142.070404 0.0015586013333978776 
144.079788 0.015156759885949923 
145.088913 0.028066965897566437 
145.173584 0.0012481954414058588 
146.05928 0.004779134237911418 
147.077515 0.020529301324991936 
148.091705 0.0012975479041831984 
148.106598 0.0018751063867640844 
150.093445 0.0026048826059448856 
152.104584 0.0018727054138616168 
155.074066 0.0011585208954163634 
156.080978 0.0071231178614647745 
157.087906 0.03367258173622532 
157.184418 0.0010376440817806885 
158.061264 0.015107252902557353 
158.09285 0.009148041011926306 
161.084427 0.015470733526613828 
162.089996 0.017039447277441264 
164.104462 0.0013465005368744863 
167.070511 0.0020768570077766015 
171.083679 0.0018807099851272798 
172.078445 0.008285596078539974 
173.083221 0.14083107945389375 
173.180832 0.001843350038987582 
173.195206 0.003895899640489343 
173.245239 0.00261644582485925 
173.293045 0.0010194727575173275 
173.334991 0.0014033829648571771 
174.091492 0.0371536726545267 
174.210693 0.0010547427151764563 
174.248688 0.0011025540549632394 
176.111771 0.001304483351198462 
179.057526 0.015341720496642017 
185.082016 0.0014569862449923233 
187.100311 0.004517120724543015 
188.106964 1.0 
188.230011 0.012138873708869385 
188.269302 0.004868132282710098 
188.30188 0.002946109408114357 
188.33577 0.0025852661867842284 
188.393036 0.0023073519806445365 
188.459839 0.0021237789316248083 
188.543747 0.0012804293715232278 
188.637695 0.0024284499491435576 
188.710724 0.0032553079878877545 
188.88031 0.0015676300895373044 
188.961197 0.0013532761994394886 
189.183701 0.0015560007037246635 
190.09259 0.001663989681417732 
190.239059 0.0013891191525987451 
192.070557 0.0011345160612663172 
193.077087 0.009839005524185566 
194.080597 0.0038892754976616577 
197.081909 0.0021346450121633577 
198.087921 0.0030933049295509486 
199.08847 0.0009657258042026903 
200.105179 0.0058402617144084875 
202.108749 0.005760468173886105 
207.090363 0.0035824308114437756 
208.110077 0.00123413836995784 
212.103287 0.0032428223925724756 
213.083527 0.0023799811219252045 
213.106522 0.0012327063116613197 
214.086761 0.005168950763323416 
215.114624 0.0021283915023554588 
216.100754 0.0038874431665266054 
218.078262 0.0016372135365137512 
222.107162 0.010205157003377922 
226.078125 0.002283108921063336 
227.099869 0.0016480394495634954 
228.099609 0.010407364594143665 
230.118225 0.003209389857701909 
232.098022 0.0058426919581693005 
240.090302 0.0015224413202688143 
248.124969 0.0010085064919316859 
249.121704 0.0012588862165600159 
250.105255 0.0013769139425895815 
251.120361 0.0017946372551532054 
252.104279 0.0013503478099448879 
253.136505 0.0062837693571280275 
254.137238 0.002874752442290509 
256.099487 0.005562973535676984 
257.135162 0.0010915680868922744 
258.116882 0.005073857443533419 
263.163757 0.001326171851961642 
264.137024 0.0014220634052768651 
265.132965 0.0031641968576875067 
266.136993 0.002248669198094734 
267.144409 0.002073933217988312 
274.113403 0.0012106685775815128 
280.137482 0.0010896510178521814 
281.15918 0.0017339706955231148 
282.170227 0.0016505984113089475 
283.184418 0.001350188960194305 
284.179993 0.0015769990763596145 
288.125305 0.001889775981669677 
289.138214 0.0020904295358308866 
290.139526 0.001545640295712048 
291.153564 0.008512711054384553 
295.175079 0.004427987197485707 
306.138245 0.001253703528220353 
307.157013 0.0029414630652084906 
309.191681 0.002038439965495521 
317.125793 0.0011292679931438965 
319.181549 0.0029393229719056947 
335.129791 0.0022504647561766545 
335.177277 0.0012742040256924756 
337.193115 0.005315983942184311 
347.178253 0.001562957378261567 
355.203766 0.004911910663956188 
365.180573 0.0017910592739795797 
367.148102 0.0009998827313239013 
379.202148 0.0037306398670972707 
397.20636 0.005327820216391525 
END IONS

BEGIN IONS
TITLE=19_20_epoxynovacine.mgf
PEPMASS=441.201853
CHARGE=1+
RETENTION_TIME=613.162
PRECURSOR_MZ=441.201853
SMILES=O=C1C[C@@](OC[C@@H]2[C@]3(O2)CN(C)CC4)([H])[C@@]([C@@]3([H])CC5=O)([H])[C@@]6([H])[C@]54C7=CC(OC)=C(OC)C=C7N61
INCHI=InChI=1S/C24H28N2O6/c1-25-5-4-23-12-6-15(29-2)16(30-3)8-14(12)26-20(28)9-17-21(22(23)26)13(7-18(23)27)24(11-25)19(32-24)10-31-17/h6,8,13,17,19,21-22H,4-5,7,9-11H2,1-3H3/t13-,17+,19-,21+,22+,23-,24+/m1/s1
COMPOUND_NAME=19_20_epoxynovacine.mgf
IONMODE=positive
SKELETON=Strychnidine
100.076598162077 0.04181583517721869 
108.079252028331 0.026824438182987104 
110.06000938819 0.03478486032316326 
170.064877955085 0.029031018413578313 
184.075420797567 0.024937133121935202 
196.074922725058 0.03569141466003809 
197.083171234481 0.029144579703036987 
198.057746340319 0.04233559708409327 
210.087943959451 0.044939649894368154 
213.078237478549 0.06791523316847936 
216.094544064545 0.02470176649998427 
220.079454058829 0.02918099223753169 
224.069378066791 0.025638215576078725 
227.096887593094 0.027400295075434608 
229.075348484309 0.028682897159999773 
230.074753845321 0.03341888208517823 
236.075955316893 0.042835370009913824 
237.073940504994 0.02781093231092142 
238.08817618182 0.033954035023469706 
240.098125676341 0.026200746481156875 
244.096150600533 0.06636656306491256 
250.082652605166 0.04428948368252207 
252.076088167099 0.0541031215238089 
262.080939427789 0.02700348395517241 
264.065991458849 0.02937712302257916 
265.082453971776 0.02691951087495755 
280.097920364261 0.03774968278180793 
281.090248916616 0.04097794355492493 
282.101318152049 0.031054229186009648 
294.106965905676 0.02543227583180539 
296.084099950783 0.036506203602049876 
296.09649699463 0.07445850269786712 
297.09352205956 0.05068610281822046 
441.201852985463 1.0 
441.380704865676 0.05230319363901901 
441.44627545648 0.02674469198980707 
442.205984323979 0.678778042451175 
443.207093488303 0.07592044095143678 
END IONS

BEGIN IONS
TITLE=Alpha_colubrine.mgf
PEPMASS=365.1862714
CHARGE=1+
RETENTION_TIME=813.457
PRECURSOR_MZ=365.1862714
SMILES=O=C1C[C@@]2([H])[C@@]([C@@]3([H])C[C@@H]4N(CC5)CC3=CCO2)([H])[C@@]6([H])[C@]45C7=CC=C(OC)C=C7N61
INCHI=InChI=1S/C22H24N2O3/c1-26-13-2-3-15-16(8-13)24-19(25)10-17-20-14-9-18-22(15,21(20)24)5-6-23(18)11-12(14)4-7-27-17/h2-4,8,14,17-18,20-21H,5-7,9-11H2,1H3/t14-,17-,18-,20-,21-,22+/m0/s1
COMPOUND_NAME=Alpha_colubrine.mgf
IONMODE=positive
SKELETON=Strychnidine
106.064624712247 0.0653854667239275 
108.080034878793 0.04676882520789589 
116.05992142004 0.02487426097023172 
117.059349429586 0.02749330778096711 
122.059930400192 0.040653758082010875 
124.074884769938 0.0260138817925811 
127.053455906754 0.026689834107656032 
142.064656468269 0.03767341631628352 
143.072229221841 0.12659369870501105 
144.059094296386 0.13439749659235772 
145.060023085921 0.03163585501691515 
148.074736780855 0.03594800353749765 
154.064887183216 0.10396254054797265 
155.072113852684 0.15274648329618734 
156.076270539725 0.03109627629146672 
159.078874650749 0.06691411043986169 
160.076623075346 0.04459931558586834 
167.072385983805 0.03856646472602217 
170.060189475313 0.06310407779778889 
171.067505599901 0.13517204562081894 
172.072312027 0.032730909140289616 
180.080046015015 0.024810546971144952 
181.084537736788 0.02721646973351643 
182.062675140559 0.03653949894503129 
183.067558190749 0.07498727756965085 
184.073351588598 0.029170563742007105 
186.090601008716 0.39131938137925065 
187.094107794286 0.06927149445695846 
196.075506228357 0.039155464873700814 
197.082425129685 0.040944320058664066 
198.086744671095 0.04967733064909008 
199.065782882197 0.06904144677542831 
204.080710434681 0.036160779607446396 
205.087039577918 0.034130266144076646 
206.092143554937 0.026861828804804477 
207.077500189691 0.02757683108788237 
209.083536246107 0.02478165627540879 
210.090176227978 0.0370263292351095 
214.085467490893 0.4595049031007423 
214.213288083463 0.027690492720461302 
215.089361474415 0.09140663060139156 
221.085400966393 0.025063102915040648 
224.105045664468 0.05644955925563173 
233.085903644769 0.031423189281585835 
234.090875413743 0.04769597550231957 
235.078652106243 0.03917334756932834 
236.102269129175 0.045307638380830975 
237.088136891305 0.03439701281748787 
248.105445506043 0.0344756729138694 
250.093950540397 0.06720604735561866 
251.098055347678 0.03069352098140098 
252.102450256513 0.1465035807827647 
253.10608473064 0.039062469764070636 
264.104272255167 0.08235832610500121 
265.110136551248 0.025691602856478424 
276.105236905013 0.029714114513755333 
291.125431310854 0.030053775396058847 
292.132554531446 0.05292044704192885 
294.112791579192 0.24038170685958818 
295.117170445854 0.06661254895037827 
302.117851430245 0.03132161353347468 
320.130339013507 0.05875389778261364 
337.155459911 0.114716176922411 
338.158578176913 0.03827141297908565 
365.186271353562 1.0 
365.350261267303 0.07856560751090191 
366.189163512761 0.4348575070826339 
366.353903540549 0.030899057402858855 
END IONS

BEGIN IONS
TITLE=Brucine.mgf
PEPMASS=395.1983245
CHARGE=1+
RETENTION_TIME=774.147
PRECURSOR_MZ=395.1983245
SMILES=O=C1C[C@@]2([H])[C@@]([C@@]3([H])C[C@@H]4N(CC5)CC3=CCO2)([H])[C@@]6([H])[C@]45C7=CC(OC)=C(OC)C=C7N61
INCHI=InChI=1S/C23H26N2O4/c1-27-16-8-14-15(9-17(16)28-2)25-20(26)10-18-21-13-7-19-23(14,22(21)25)4-5-24(19)11-12(13)3-6-29-18/h3,8-9,13,18-19,21-22H,4-7,10-11H2,1-2H3/t13-,18-,19-,21-,22-,23+/m0/s1
COMPOUND_NAME=Brucine.mgf
IONMODE=positive
SKELETON=Strychnidine
106.066970113402 0.07260504448515923 
108.082530390899 0.05153522590258935 
122.061939811982 0.04349420256740417 
124.076670736683 0.03519082397738926 
142.065733882996 0.03619064914920244 
146.062881351149 0.02839475244300502 
154.065520317208 0.04829008712883256 
156.082141995781 0.02505987512353066 
158.062575240644 0.04826438540831419 
170.061442454273 0.14942974660645497 
171.066291022475 0.029702574606304714 
172.076314221614 0.05535204437416169 
173.082406224198 0.028579663612492617 
182.064111276778 0.03143506827478472 
183.068384465149 0.03802086584295006 
184.076552307496 0.07782116629888729 
185.084547847699 0.1419044805442212 
186.063366875033 0.05598848675895372 
190.085580020785 0.029847323307026254 
192.076344272742 0.024873520703583184 
196.076437679511 0.02716672706100261 
197.084895968472 0.03659312114633063 
198.05789146248 0.15328938244979196 
199.066815448832 0.028553114582506617 
200.072457355533 0.05079905519345629 
201.079711044908 0.036808620187599964 
208.078622763692 0.030995286417431524 
210.090804478731 0.026668616419897196 
212.073832099497 0.040724093724854325 
213.07994327549 0.24009132301442201 
214.05593835213 0.06591624232937798 
214.073592108633 0.04341630658367929 
216.101966039075 0.10630310688611228 
217.102586838945 0.02519071665152336 
220.07930045693 0.03836111708150467 
221.084036809937 0.027238344481572287 
227.096092578324 0.028688994777466878 
229.075849703756 0.1772304503816988 
230.085496905196 0.0392341000260124 
234.09364732007 0.03582229547997115 
235.096833965461 0.026291863089476723 
236.084562155058 0.04632935653341972 
238.09139939963 0.02555570367780323 
244.097867874844 0.31271198623743474 
245.101656663843 0.07227496096021628 
248.091852237006 0.025347923625784075 
251.096900159132 0.05755230935607587 
252.084284150857 0.03215855758555213 
254.116794523191 0.040292559012986146 
256.100103968174 0.025250920813563955 
263.097620486715 0.09196852301815021 
264.098056896557 0.056364974599074344 
267.090539701012 0.06630422533460956 
278.118805842108 0.027017035721719845 
280.10393386181 0.054567915949160294 
282.113411217494 0.11103555621206347 
283.119341398561 0.033547664970447255 
294.117526753274 0.026102221108794815 
306.116518194284 0.032674653782290605 
321.134496902697 0.029106125228385207 
322.144305900005 0.05240332269583369 
324.12470170882 0.28774629520996187 
325.127750739968 0.0849289064991178 
332.129195297194 0.024761562879259246 
350.141142788173 0.08607633298019357 
351.148761742573 0.037615993135663564 
352.147297657743 0.027245368677059012 
367.165473395864 0.14990240407115252 
368.169484469509 0.06413468944272173 
380.175370514317 0.025962330315687735 
395.198324455015 1.0 
396.200960793438 0.4735844212551534 
397.202889490776 0.041555247825309644 
END IONS

BEGIN IONS
TITLE=Icajine.mgf
PEPMASS=365.18657
CHARGE=1+
RETENTION_TIME=818.368
PRECURSOR_MZ=365.18657
SMILES=O=C1C[C@@](OCC=C2CN(C)CC3)([H])[C@@]([C@@]2([H])CC4=O)([H])[C@@]5([H])[C@]43C6=CC=CC=C6N51
INCHI=InChI=1S/C22H24N2O3/c1-23-8-7-22-15-4-2-3-5-16(15)24-19(26)11-17-20(21(22)24)14(10-18(22)25)13(12-23)6-9-27-17/h2-6,14,17,20-21H,7-12H2,1H3/t14-,17-,20-,21-,22+/m0/s1
COMPOUND_NAME=Icajine.mgf
IONMODE=positive
SKELETON=Strychnidine
115.05563003767 0.031465300101343324 
117.066578094545 0.0286978753041354 
128.058320608937 0.02586782075303292 
129.069799804594 0.04062324740000253 
130.066772244707 0.0648938144025593 
144.08142685581 0.11511656590900465 
154.066962700027 0.049050029306634546 
155.073217852565 0.024686450636242117 
156.081476565636 0.056393273951672866 
166.068079610234 0.02546223309527256 
167.074213847032 0.07007437700560691 
168.081449899387 0.05894839783369855 
170.065549464481 0.03129753543151032 
180.081954894273 0.08501503282764747 
181.086905107486 0.03794151463996413 
182.087981235098 0.03157777221787269 
183.072053248311 0.032862551883987894 
184.077540663611 0.06504484547602547 
191.074411174575 0.036588384452443834 
192.081374861128 0.04144636323640826 
193.088503235425 0.04133099911025901 
194.096695824867 0.07018956543250829 
204.081561031902 0.07528849816499705 
205.088208755383 0.05252975291063374 
206.096674069891 0.04749860494797194 
208.098322135821 0.03425285300438686 
210.085745729847 0.031131334484983335 
212.073439947 0.03525816544684535 
217.089676642974 0.05949292494268691 
218.096335086637 0.061606059796779224 
219.101404282595 0.027866607022628657 
220.096133083837 0.05272618466974866 
221.091213281575 0.026431600985602502 
222.094677584881 0.036521618738254505 
234.097036757485 0.0483224587212187 
236.087392660679 0.06127736164387027 
246.095023661026 0.03679644750176753 
248.107732802073 0.05773227791966468 
262.117795176894 0.04036922142743691 
264.103512705108 0.06101679965928402 
272.108713803304 0.02558334961479697 
290.11943771208 0.025130305590187828 
308.12876865575 0.033501707093892275 
365.186139457315 1.0 
365.346278132524 0.02956947359099745 
366.190294569036 0.40052611382781195 
END IONS

BEGIN IONS
TITLE=Isostrychnine.mgf
PEPMASS=335.1740556
CHARGE=1+
RETENTION_TIME=683.227
PRECURSOR_MZ=335.1740556
SMILES=O=C1CCC2=C(/C(C3)=C\CO)C[C@H](N3CC4)[C@@]54C6=CC=CC=C6N1[C@]52[H]
INCHI=InChI=1S/C21H22N2O2/c24-10-7-13-12-22-9-8-21-16-3-1-2-4-17(16)23-19(25)6-5-14(20(21)23)15(13)11-18(21)22/h1-4,7,18,20,24H,5-6,8-12H2/b13-7-/t18-,20-,21+/m0/s1
COMPOUND_NAME=Isostrychnine.mgf
IONMODE=positive
SKELETON=Strychnidine
103.054646955355 0.03188284187841544 
105.069268574393 0.034088092530602625 
106.065984939625 0.047429262773998594 
115.053989696775 0.09125490412775598 
116.057045185327 0.030009347289315185 
117.065546180403 0.06090384274218175 
118.065546875243 0.032593730278062956 
122.06058698009 0.0259024380313108 
127.05437089714 0.03276872875120331 
128.057525331176 0.06412333535945185 
129.068845361558 0.049152101395113466 
130.065728691902 0.10786603188082934 
142.06665844191 0.02879642162265918 
143.074707761892 0.040427974395290875 
144.080378615683 0.0998390544521773 
152.061373118728 0.0308629112705508 
154.065984795642 0.05817858732037587 
156.08030574138 0.03727992717606582 
165.069671155352 0.05979926885235413 
166.068526732046 0.03841192637337389 
167.07301012832 0.13645884895141097 
168.079625237182 0.07705289914292278 
169.079716655662 0.045893474638134264 
178.074825747264 0.047554849160808856 
179.078159418776 0.040061929427093176 
180.080872797164 0.10853796645562072 
181.086445533244 0.04106990108857822 
182.092418085745 0.03448445366053693 
184.079199507171 0.025444351055568963 
190.070003272588 0.029770482458563934 
191.073709052262 0.15749641551522062 
192.080135057792 0.15650875544943477 
193.088152132963 0.08445674333925658 
194.095376976745 0.07463598211974652 
196.080771710401 0.03333003725537527 
198.091312304602 0.03544208839499422 
202.075692077198 0.04295303379740172 
203.077006327282 0.04592139435730842 
204.080925755866 0.3087126973647857 
205.086759718172 0.15232754483877817 
206.094557404606 0.11677870423419992 
207.100023365039 0.03986169850774918 
208.106014205883 0.03059276472110818 
216.08119605468 0.09469158889376839 
217.088587706987 0.3037459538219478 
218.094851838112 0.21761396916616013 
219.097247812467 0.09395741661165125 
220.083269747287 0.262347408555649 
221.088165973443 0.0789852927062642 
222.092247556241 0.09469385737095128 
228.080979814573 0.08447070319884366 
229.087435067519 0.06092606218535785 
230.096170574575 0.14161928554601955 
231.10151994292 0.10385094359925896 
232.104522951973 0.12299491337616296 
233.099864858203 0.06667822232821374 
234.097082101568 0.07986435669767888 
235.102211239907 0.032821566819740404 
241.088663979666 0.04915502714901859 
242.09601444899 0.05558410669986011 
243.102188392694 0.05430408064145555 
244.110147866096 0.08250253749531035 
245.111604293737 0.05031177601405292 
246.104159859616 0.11833708989277082 
247.113649349977 0.062444255081534304 
248.108206316901 0.09629080714163149 
257.088463976938 0.06845129899401761 
258.096015459983 0.04958326910828489 
259.10401305882 0.0354944785847029 
260.110499575293 0.05707804434000401 
261.114210946349 0.029616121311179813 
262.122457696672 0.05279540371623096 
272.107369912108 0.1173530942901266 
273.110007809351 0.04903352402113755 
274.120605676623 0.06889184889615318 
275.124745661988 0.028917860767850443 
289.135048645469 0.03229334318278982 
317.164517775754 0.025366327073693518 
335.175312049422 1.0 
336.178586023105 0.27618767867893196 
END IONS

BEGIN IONS
TITLE=Novacine.mgf
PEPMASS=425.2065046
CHARGE=1+
RETENTION_TIME=778.323
PRECURSOR_MZ=425.2065046
SMILES=O=C1C[C@@](OCC=C2CN(C)CC3)([H])[C@@]([C@@]2([H])CC4=O)([H])[C@@]5([H])[C@]43C6=CC(OC)=C(OC)C=C6N51
INCHI=InChI=1S/C24H28N2O5/c1-25-6-5-24-15-9-17(29-2)18(30-3)10-16(15)26-21(28)11-19-22(23(24)26)14(8-20(24)27)13(12-25)4-7-31-19/h4,9-10,14,19,22-23H,5-8,11-12H2,1-3H3/t14-,19-,22-,23-,24+/m0/s1
COMPOUND_NAME=Novacine.mgf
IONMODE=positive
SKELETON=Strychnidine
146.060225623424 0.03222654938721598 
170.060235569497 0.028743901086055457 
172.074751713187 0.03694228893008134 
184.07473246628 0.025770592747536035 
190.084767369756 0.03843483548228738 
196.075959880642 0.033621318093924824 
197.081653367261 0.03347928190540857 
200.071168378382 0.03710591861893019 
204.099692915428 0.036486039932976826 
210.089276627088 0.03287923495680586 
212.074571200503 0.03108528408904236 
213.077835898165 0.043815807204086905 
214.076843194839 0.03247250578405833 
216.098746722358 0.0311925373624694 
222.089520915572 0.035999221967375004 
223.095932781585 0.02688821709110076 
224.090823613629 0.029878166947517083 
226.0851655651 0.02659281229272501 
228.075379883761 0.039676640308470415 
229.076354946783 0.04050543075342985 
230.083736048274 0.049469875995693684 
234.09010690806 0.0382961799740878 
235.093870447718 0.025748927824379847 
236.093908270343 0.03299120213658996 
238.090077891809 0.02837257382620161 
240.097750734639 0.03576024119963679 
242.088860391345 0.027748528808872047 
243.090128011327 0.0386140591542871 
244.094721421389 0.05836911220001819 
248.099120971502 0.03048535617847897 
250.091304371381 0.043247638642414016 
251.093949481794 0.029632329588714052 
252.089696009255 0.03980582038874015 
254.109664014343 0.029986824869808096 
256.101368534842 0.02837464508808577 
258.098597298587 0.03175042103754507 
260.095099004998 0.03425276727730007 
262.091696079285 0.03113994635669796 
264.100812507932 0.04922177691414358 
265.103666648867 0.032191980740597544 
266.104621061229 0.031338358960636026 
267.103611876701 0.025796662078147042 
268.103917462244 0.029841360385759432 
272.092753404232 0.051385055202700355 
273.098419962324 0.034728776588931656 
276.101161527107 0.024658039424446318 
278.109337468923 0.033398740768004864 
280.103419875922 0.03841312294391547 
281.103195445633 0.025817279466557215 
282.108621253068 0.0300286786444329 
292.107587151458 0.029738987671944495 
293.107447425468 0.025355602334859718 
294.11497086462 0.04349154758498006 
295.118178730292 0.02471939162991169 
296.109555514694 0.040072394173992665 
297.106745370999 0.02550375707859701 
298.116710221648 0.02617244136067145 
306.11311753116 0.037338757023839514 
307.119199344294 0.039632191504588445 
308.125794166196 0.0537306997674949 
309.127984082973 0.026883384146704385 
322.132637049015 0.032027398747434134 
324.12370351012 0.06437343851851923 
325.126860223084 0.027011397654188786 
338.137963184731 0.026149871748416438 
350.138364437708 0.027157528751257636 
366.137908682653 0.024562237610401827 
368.149081256484 0.10241671027426841 
369.152365157116 0.04476282622969866 
425.206504581102 1.0 
425.382720062829 0.05882821811006638 
426.2100714237 0.6038454524373991 
427.213146414968 0.05905650926187369 
END IONS

BEGIN IONS
TITLE=Protostrychnine.mgf
PEPMASS=353.1865195
CHARGE=1+
RETENTION_TIME=577.535
PRECURSOR_MZ=353.1865195
SMILES=O=C1C[C@@H](O)[C@@]([C@@](/C(C2)=C\CO)([H])C[C@@H]3N2CC4)([H])[C@@]5([H])[C@]34C6=CC=CC=C6N51
INCHI=InChI=1S/C21H24N2O3/c24-8-5-12-11-22-7-6-21-14-3-1-2-4-15(14)23-18(26)10-16(25)19(20(21)23)13(12)9-17(21)22/h1-5,13,16-17,19-20,24-25H,6-11H2/b12-5-/t13-,16+,17-,19-,20-,21+/m0/s1
COMPOUND_NAME=Protostrychnine.mgf
IONMODE=positive
SKELETON=Strychnidine
103.055317563339 0.026019106150752102 
106.066432922383 0.17853682757951775 
107.070565857855 0.028997544313675353 
115.055191340493 0.06945253331746176 
117.066841762393 0.0533834206637701 
124.076993125683 0.40117975080147816 
125.079487568049 0.035893287129396746 
127.054324949156 0.02660927546966287 
128.058616277854 0.04581335608259983 
129.069436562066 0.043683680120036185 
130.066765673294 0.1417647802263611 
142.06785028976 0.025581811020902727 
143.074588555634 0.05109952951048664 
144.082106131827 0.24328690895811153 
145.085429565297 0.02996475553723466 
154.066560811885 0.06867361342265507 
155.072573789419 0.030206558343124485 
156.08234123038 0.05374470120646062 
166.067409192017 0.08669471013422508 
167.07357033147 0.16025091059523575 
168.082151544764 0.17953651676105117 
169.084300021335 0.046002437316438924 
170.065660988122 0.029337111651430683 
171.09317086053 0.04085196223445412 
180.082214797642 0.09003745987098462 
181.08910900126 0.032533435029020744 
184.077998669094 0.05784833161023806 
191.074546268884 0.06107645326003014 
192.081844379206 0.06820909412215093 
193.088329811808 0.04662521318252392 
194.094240838392 0.07703870828841897 
196.080961887832 0.07561528095270637 
200.072959116773 0.028619804353369 
204.083214879639 0.09408155347510477 
205.089477126072 0.06988244375324688 
206.096304317243 0.05801729781920065 
207.102803654988 0.025750575161122266 
212.074119666871 0.04111623141059413 
217.090740466674 0.08262434759350823 
218.096647867702 0.0788373956498641 
219.10295190477 0.04726264821742303 
220.085776379269 0.1675199294890306 
221.091311477957 0.04098347224640924 
222.096681215377 0.05476680164858702 
230.097665549831 0.034055655610199846 
232.108388487625 0.028041906118127187 
234.106583808776 0.029332904947598062 
238.095405204238 0.031809496202209825 
244.113394037356 0.026899831952285326 
246.101893423167 0.034024849311827345 
248.10859625492 0.039121721067246276 
262.12417790703 0.03686635834650454 
272.109195098065 0.039016479991887856 
290.121329632101 0.03937551940851907 
353.188611967936 1.0 
354.191261091099 0.33906914645428143 
END IONS

BEGIN IONS
TITLE=Pseudostrychnine.mgf
PEPMASS=351.1715963
CHARGE=1+
RETENTION_TIME=759.8
PRECURSOR_MZ=351.1715963
SMILES=O=C1CC2[C@@]([C@@]3([H])C[C@]4(O)N(CC3=CCO2)CC5)([H])[C@@]6([H])[C@]45C7=CC=CC=C7N61
INCHI=InChI=1S/C21H22N2O3/c24-17-9-16-18-13-10-21(25)20(6-7-22(21)11-12(13)5-8-26-16)14-3-1-2-4-15(14)23(17)19(18)20/h1-5,13,16,18-19,25H,6-11H2/t13-,16?,18-,19-,20-,21+/m0/s1
COMPOUND_NAME=Pseudostrychnine.mgf
IONMODE=positive
SKELETON=Strychnidine
115.054386208003 0.04969553384508025 
117.067396261489 0.07437070830425681 
127.053697486979 0.044946458478715985 
128.055698272511 0.030401744591765527 
130.065238267492 0.03539565596650383 
143.073249905481 0.05506022330774599 
144.080071236188 0.5289799371946965 
145.083813556463 0.07595844382414516 
154.065059039 0.03489598743893929 
156.079498112673 0.026488398464759248 
167.072827828549 0.07034300418702023 
168.079213875821 0.07838360083740405 
169.085750904399 0.04761803907885555 
180.07982398862 0.03227569783670621 
182.095750529607 0.09648597348220517 
183.096765168073 0.03114335310537334 
184.109490523368 0.03193838101884159 
207.091574158337 0.03504232379623168 
210.091463531471 0.09596334612700627 
211.094880670526 0.029451639916259594 
305.163091764791 0.033489148639218425 
333.159763593233 1.0 
334.162924986005 0.3300029658060014 
END IONS

BEGIN IONS
TITLE=strychnine.mgf
PEPMASS=335.1752387
CHARGE=1+
RETENTION_TIME=161.108
PRECURSOR_MZ=335.1752387
SMILES=[H][C@]1([C@@]23[C@@H](N4CC3)C[C@](C(C4)=CCO5)([H])[C@@]1([H])[C@]5([H])CC6=O)N6C7=C2C=CC=C7
INCHI=InChI=1S/C21H22N2O2/c24-18-10-16-19-13-9-17-21(6-7-22(17)11-12(13)5-8-25-16)14-3-1-2-4-15(14)23(18)20(19)21/h1-5,13,16-17,19-20H,6-11H2/t13-,16-,17-,19-,20-,21+/m0/s1
COMPOUND_NAME=strychnine.mgf
IONMODE=positive
SKELETON=Strychnidine
106.065184810631 0.10248218383862787 
108.080519933635 0.09219915573678314 
121.064788351423 0.054375580509056984 
122.05998935215 0.07165855862985285 
129.069884895311 0.29449745096650853 
130.06504455214 0.11479855554768818 
144.080702555787 0.2849293080540295 
154.065284084358 0.06897129630015286 
156.08064386358 0.9519905993977285 
156.08936671747 0.11442291672740752 
166.065013750153 0.09041847674423449 
167.072909960848 0.08563872656617699 
168.080683754398 0.14259837936449096 
170.096111901486 0.08732277553094453 
180.080486702872 0.0869312052513422 
182.096228799564 0.0903570417050202 
183.068114596711 0.05785551103539908 
184.075712188616 1.0 
184.084769607938 0.14501621260272146 
184.107437993313 0.0541409298974139 
194.096369903475 0.2057449571204252 
196.075411234262 0.0903757845983398 
198.091376141341 0.08323224319112336 
204.080933733829 0.09016513530286434 
205.088612821128 0.05365111561866126 
206.096303352733 0.10927356710580571 
217.088720767415 0.08104755072035187 
218.096408854008 0.08907601701021697 
220.075501279083 0.1631844800513139 
220.112373674409 0.09880102752706267 
222.091221786674 0.1914688597240213 
232.111998910329 0.053951834929255996 
234.091439649185 0.12553052800813025 
246.091233392129 0.07130082968541096 
248.106802494485 0.061283690350742014 
262.122207482826 0.07425840618765385 
264.102083662527 0.11223062297212308 
335.17536729149 0.34866217392571985 
335.185973728245 0.06684595632489349 
END IONS

BEGIN IONS
TITLE=Vomicine.mgf
PEPMASS=381.1809092
CHARGE=1+
RETENTION_TIME=880.247
PRECURSOR_MZ=381.1809092
SMILES=O=C1C[C@@](OCC=C2CN(C)CC3)([H])[C@@]([C@@]2([H])CC4=O)([H])[C@@]5([H])[C@]43C6=CC=CC(O)=C6N51
INCHI=InChI=1S/C22H24N2O4/c1-23-7-6-22-14-3-2-4-15(25)20(14)24-18(27)10-16-19(21(22)24)13(9-17(22)26)12(11-23)5-8-28-16/h2-5,13,16,19,21,25H,6-11H2,1H3/t13-,16-,19-,21-,22+/m0/s1
COMPOUND_NAME=Vomicine.mgf
IONMODE=positive
SKELETON=Strychnidine
115.053266159802 0.03226636544248097 
146.060293316277 0.04691328226830102 
154.063251315179 0.030137326002415633 
160.07545535448 0.08462566554420764 
167.072449512995 0.026373311840243316 
168.081338803663 0.028407006337274585 
170.060598113075 0.05032117616500113 
172.075119885223 0.04614356265350516 
183.067652843894 0.034340192334628955 
184.074784651372 0.04077885930394614 
186.055985008415 0.029146953431378284 
192.078922507833 0.02719850141190479 
196.075257663044 0.0525772151627911 
197.080168281772 0.03390463633631515 
198.086620229383 0.027087862365775442 
199.063577967471 0.04241795256922545 
200.067903621369 0.03733522902209003 
200.074402019339 0.024664898679492096 
204.080680497991 0.02939617543790444 
210.090166957394 0.07050705216943927 
216.073870374626 0.029685392777639784 
220.076849636707 0.047939274220426965 
221.082940309272 0.041264894199907795 
222.090436684902 0.039359466247502375 
228.069391898348 0.02652598209035455 
234.090430257285 0.05044927890393264 
235.093549717287 0.026286879264171448 
236.095515715655 0.04265426735563119 
238.085190899866 0.03441815047324802 
250.090490601996 0.027104787839867563 
252.073425905393 0.025530043468682522 
252.090431405456 0.028613204276732668 
254.107730056092 0.026945592105769002 
262.088504627553 0.031075742081582588 
263.094064404449 0.027097811054477425 
264.100843478625 0.044654368313426486 
278.113357124328 0.04286915368283674 
280.099172099323 0.04487082583810849 
324.121273826641 0.040648650491801525 
381.18090921893 1.0 
382.183818243294 0.4919048228742283 
382.354079277254 0.0249064151324369 
383.185037389713 0.034246221353643455 
END IONS

BEGIN IONS
TITLE=Pandine.mgf
PEPMASS=353.1843184
CHARGE=1+
RETENTION_TIME=875.311
PRECURSOR_MZ=353.1843184
SMILES=CC[C@@](O)(C1)[C@H]2N3[C@@H]4[C@H]1[C@H]2C(C(OC)=O)=C([C@@]54CC3)NC6=C5C=CC=C6
INCHI=InChI=1S/C21H24N2O3/c1-3-20(25)10-11-14-15(19(24)26-2)16-21(8-9-23(17(11)21)18(14)20)12-6-4-5-7-13(12)22-16/h4-7,11,14,17-18,22,25H,3,8-10H2,1-2H3/t11-,14+,17-,18+,20-,21-/m1/s1
COMPOUND_NAME=Pandine.mgf
IONMODE=positive
SKELETON=Pandinan
115.043477348861 0.054546206090239725 
127.042312793505 0.02687718320269949 
128.044356185654 0.03523344912241906 
129.056499615401 0.0370660852641752 
130.053570748927 0.05548180954487006 
142.051722049693 0.027279245702187604 
143.0591205866 0.026270595817260045 
144.066978120118 0.05723613960621473 
154.050816859291 0.07132269834639672 
155.056024026918 0.030680089396135857 
156.065331257344 0.05233158625928564 
157.071232583838 0.026777582577786514 
166.050494765069 0.03807952130273471 
167.056895550288 0.08083543463393858 
168.059879892987 0.06650075093982653 
169.06108839057 0.06021412534706012 
171.075298460579 0.03277810112042065 
178.050316849189 0.02797083210480192 
179.056447421188 0.026466111472845357 
180.063924972669 0.1286138019361655 
181.066132947415 0.09033803553731869 
182.069955840674 0.09335931421328943 
183.07454791283 0.21823760002293258 
184.076678768983 0.047666993251267435 
191.055517605085 0.02990977460543666 
192.062070441695 0.044658729329958964 
193.06894219056 0.057269975408896195 
194.077446916782 0.10087808003063137 
195.078668381645 0.03763282216188768 
204.061739386211 0.07827866880431132 
205.065621580522 0.05217920997239899 
206.070959299335 0.07921680610498211 
207.076170510362 0.049041335986961185 
208.08238346528 0.03302302677379461 
211.067272610836 0.061803435485720364 
217.067858455472 0.07918446757496089 
218.072914375995 0.09153500905018142 
219.07590354574 0.07032943069854296 
220.079272792902 0.04517688804802739 
221.086501321825 0.06569910859808185 
222.090335823522 0.025658608012481876 
231.075811701568 0.0426688155728642 
232.084660806223 0.044185527183305075 
233.088265017635 0.025438918441894557 
245.084799388858 0.0664165069575829 
246.093327616758 0.04111706522273274 
249.083256783603 0.026248878965085133 
259.097420642433 0.030096153058633706 
264.112887565957 0.03252686644635003 
321.130343881227 1.0 
321.286376856714 0.05893594078888097 
322.133403161122 0.3239620701163829 
323.136406013505 0.043681304618459094 
END IONS

BEGIN IONS
TITLE=Echitamine.mgf
PEPMASS=385.2103475
CHARGE=1+
RETENTION_TIME=803.956
PRECURSOR_MZ=385.2103475
SMILES=O[C@H]1C[C@H]2C(C=C)C[N@+]3(C)[C@]([C@@]4(C2(CO)C(OC)=O)CC3)1NC5=C4C=CC=C5
INCHI=InChI=1S/C22H29N2O4/c1-4-14-12-24(2)10-9-21-15-7-5-6-8-17(15)23-22(21,24)18(26)11-16(14)20(21,13-25)19(27)28-3/h4-8,14,16,18,23,25-26H,1,9-13H2,2-3H3/q+1/t14?,16-,18-,20?,21-,22-,24+/m0/s1
COMPOUND_NAME=Echitamine.mgf
IONMODE=positive
SKELETON=Vincorinan
103.051258512689 0.042584921000620723 
105.066687454131 0.055370986721097346 
106.064450217937 0.026192540280353546 
108.077713083688 0.04344296583738581 
109.063742402741 0.04368205843935764 
110.093304493017 0.10128923788162088 
111.098770583508 0.03858773139068611 
115.051257802816 0.0800787137705305 
116.052401169613 0.02770450538277284 
117.058405691355 0.055053703964630205 
118.06191675626 0.02755572226643869 
120.07739208658 0.026435869412064873 
121.083939017951 0.030098820626282857 
122.0927941271 0.041865158398610804 
127.050694840151 0.03826021432080336 
128.053551789083 0.07144812202728897 
129.065593456927 0.0918202607036638 
130.062118065216 0.3738646100298175 
131.067449657584 0.068400324451536 
132.076283589141 0.03692970597531579 
134.092822776681 0.09068117686036016 
136.108610165962 0.09804596015948391 
139.051082461912 0.11903220524225333 
140.050532118769 0.048469508410225556 
141.062491194 0.025247460938243774 
142.062419662189 0.04671563269953578 
143.069822309264 0.07139549385560383 
144.077108165479 0.2020534316842919 
145.079798091544 0.034691380708842826 
146.092008265442 0.02988256720373805 
148.108067707502 0.04816991435545722 
151.051363795666 0.026597428759658336 
152.058495022201 0.0733763142762484 
153.063936558057 0.04428314108691265 
154.062381294986 0.14411436535832473 
155.068129279856 0.06273141924698301 
156.077128546245 0.16270473386977002 
157.081009928904 0.04024229141993245 
158.058473372865 0.057287611815824244 
165.06613875183 0.07382272074700015 
166.062521952417 0.449477050385191 
167.069638156597 0.7535972421619439 
168.07642341726 0.44962737578875617 
169.079954627401 0.09577917874156978 
170.060210473883 0.06107710674531697 
172.076730835659 0.0262769471852306 
178.067831761871 0.07566358336157686 
179.071878383997 0.10508164602032773 
180.077695177031 1.0 
181.083322399377 0.37271189312901515 
182.09193496178 0.2116155173136022 
183.092628965111 0.05573238650860444 
184.078426273414 0.03321366009512675 
185.103373053276 0.038193486597333556 
189.066476927502 0.02722466364809956 
190.064719710655 0.04375395568113878 
191.069797311194 0.3814752262973301 
192.076770745684 0.3260393302284489 
193.084815010112 0.31185438142857685 
194.060367238438 0.20280543951377966 
194.084159656645 0.4410406440286827 
195.060292966635 0.0373213612493669 
195.091787692185 0.138671043462035 
196.103312462475 0.06804613152473181 
197.105157041615 0.04154375335590277 
202.078368888122 0.03540952486128935 
203.074144821128 0.033422735217843315 
204.07774267201 0.6620007083096912 
205.084760296516 0.723028252417202 
206.09225609708 0.4288070693876929 
207.099052195816 0.19035927676249156 
208.107091683546 0.25815146403043443 
209.112134023037 0.07899751329984729 
210.105972011674 0.03497503779555745 
214.083744853535 0.029848665445530602 
216.078068089148 0.1450340255219976 
217.085530885384 0.9214165622608027 
218.091171803924 0.42597221217302556 
219.098240831185 0.15033749433542654 
220.108260876491 0.7703116372235783 
221.111572862875 0.23444793733363292 
222.105426885869 0.2505969222801479 
223.108885283654 0.039716533319116364 
224.105659359498 0.03783420983484198 
226.084116294932 0.05523466566640137 
230.092854458786 0.11033903662265752 
231.100340244616 0.13122455702083421 
232.108646324885 0.539072990171251 
233.11023995397 0.17144778881708472 
234.107218753892 0.034544282684112915 
234.120577172165 0.053206310430050606 
235.10351123784 0.02993241545029075 
236.108616891107 0.09420009558372716 
238.087430402924 0.09395026409288758 
239.090643021499 0.02471181125450786 
241.087429570363 0.03994020304877816 
242.092642664601 0.0472851174994383 
243.100038556581 0.05490767221255383 
244.105875956555 0.03485906160390256 
246.121905062366 0.08704810984131578 
247.126273099128 0.025417959839602124 
248.105457723831 0.24537399513322697 
249.110677026168 0.06990177915208476 
250.119599189822 0.24034423470184352 
251.123128704286 0.05932485900448215 
252.128383120824 0.035194632840436106 
254.114740170988 0.038007450580166566 
256.110065991981 0.04017302177861894 
258.124350557077 0.07673990944298678 
259.125569939524 0.0343586846003572 
260.104891200954 0.12746965883083203 
261.112155366473 0.04007947539385446 
264.13625663064 0.02814142964314139 
266.114949214389 0.11347873357273693 
267.117603007646 0.031502463851452986 
268.129230573539 0.09939850797990839 
269.132908326039 0.02788304893049045 
274.120305049383 0.03697850698979805 
278.11573336845 0.0696015281971995 
279.121388197546 0.024698444765172488 
280.130313898779 0.12936552968998122 
281.133275506526 0.03399043020293453 
292.130283006286 0.07257352521163608 
307.175970761182 0.027293685761832772 
310.141117328055 0.18827404730442465 
311.144652017635 0.05641081200470683 
349.187833731708 0.02655047468173665 
367.198354934735 0.046542582360042196 
385.210347538291 0.40000866346530994 
386.213589274925 0.1476504872485215 
387.215734536658 0.026478682163162567 
END IONS

BEGIN IONS
TITLE=n-demethylechitamine.mgf
PEPMASS=371.1957016
CHARGE=1+
RETENTION_TIME=108.241
PRECURSOR_MZ=371.1957016
SMILES=COC(C1([C@H]2C[C@@H](C34NC5=C([C@@]13CCN4C/C2=C\C)C=CC=C5)O)CO)=O
INCHI=InChI=1S/C21H26N2O4/c1-3-13-11-23-9-8-20-14-6-4-5-7-16(14)22-21(20,23)17(25)10-15(13)19(20,12-24)18(26)27-2/h3-7,15,17,22,24-25H,8-12H2,1-2H3/b13-3+/t15-,17-,19?,20-,21?/m0/s1
COMPOUND_NAME=n-demethylechitamine.mgf
IONMODE=positive
SKELETON=Vincorinan
105.069870386858 0.05543487425748505 
106.065289998186 0.02605242272723528 
107.085171455309 0.04219529235125824 
108.080780180433 0.07311079574493663 
109.064591363265 0.1181675224983185 
110.096258332755 0.09960216465552077 
117.057125464696 0.04278080142132435 
117.069460445193 0.0618260433807837 
118.064999814749 0.0609613833746425 
120.081396180619 0.030753673963382872 
122.096097182204 0.030270230026433188 
128.062190890145 0.027424113022463382 
129.06994458024 0.09764942015104419 
130.065052418025 0.49047620936503283 
130.072721018407 0.07119816532964901 
132.080608078924 0.10229316503316684 
134.096141217252 0.049913165812258936 
136.112132005893 0.09947126497807099 
142.06492992646 0.04144167839627451 
143.073445014082 0.06024468984150357 
144.080681109866 0.3772859258843381 
144.088498816387 0.0983981418958606 
148.112106943349 0.03941097382748927 
154.065102610585 0.12427525873028127 
155.0728669636 0.05067235342872227 
156.080670617261 0.18086206032023938 
156.08935095974 0.03746030418969489 
157.088627105608 0.04010645083171132 
158.060060487453 0.10222054469929029 
158.096332529287 0.06067703510094683 
160.075942042235 0.025244414718249883 
166.065327763158 0.12341022240028103 
166.075381436915 0.02780965173057612 
167.073008912651 0.5279365033838126 
167.08153123744 0.08222046740033545 
167.103029981147 0.03073563075997993 
168.080617876323 1.0 
168.089300340457 0.3095075578544536 
168.110943616967 0.0512852731150065 
170.059912706445 0.04841196925495097 
172.075619307407 0.05101403515088603 
179.072183347222 0.02927961340758508 
180.080868361795 0.943419199249956 
180.089555025125 0.14635845132357678 
180.107931778458 0.045262402998711246 
181.088412552901 0.24630152471171302 
181.097557218189 0.05669861045974875 
182.060381026923 0.025686646107178863 
182.096407218231 0.2227813852318516 
182.105027048222 0.03440122856517781 
183.067765220442 0.02749254293931513 
191.072800863395 0.23175681097872985 
191.08233287096 0.041859764032735294 
192.080346913626 0.1830065977709219 
192.089882211161 0.03471401471751758 
193.088340637046 0.23524970664538097 
193.098444723369 0.047305475400268734 
194.059986839112 0.2641230021652861 
194.0683635286 0.05209564077629712 
194.096242192939 0.5164229257715427 
194.106463719459 0.08600599046558076 
194.124993739922 0.025322334098898114 
196.075467355026 0.045763351080563106 
196.111793094564 0.1403532379159103 
196.120912423825 0.02720371946297161 
200.070816490762 0.03530764017784048 
204.080821102228 0.48364532106883706 
204.089848645539 0.0753803134004756 
204.110142397235 0.024618883097230794 
205.088600756378 0.5637694509851904 
205.098249027105 0.08848388982986805 
205.110617710919 0.03185764543111814 
205.120668180019 0.030475672340715076 
206.096160786967 0.3403561467976314 
206.105075641096 0.06082630345108303 
207.104445688908 0.23445627355774643 
207.113555661191 0.0436265943799388 
208.076100806596 0.041928041385860405 
208.112049601969 0.37077664192388143 
208.121427505787 0.11555278364215792 
210.0923693558 0.0342455525385231 
212.06969241127 0.025965441061225145 
216.081079682051 0.04123281865451608 
217.088668773977 0.8183980056055981 
217.09820561543 0.1584294967929579 
217.117876915759 0.039873353799248716 
218.09644158472 0.4016673384556096 
218.105277301307 0.07114946698810827 
219.104026385349 0.4087034758187002 
219.114319473762 0.07346266872403936 
220.076213220814 0.06745745531637291 
220.111821291225 0.4563114952597941 
220.121379210138 0.10598347816207902 
221.084188334636 0.03701567246480024 
222.091322245455 0.0741686827963141 
222.127595990916 0.2542614862941325 
222.137934760935 0.03388317300411301 
224.070258054909 0.13944660254311525 
224.106428742241 0.04652334219932003 
230.096468530258 0.13044788540063793 
231.103764632002 0.1616132983494537 
232.112001325316 0.4571170317364081 
232.122351213412 0.06788742058168074 
233.083104748984 0.06233090726495243 
234.091327668226 0.04403828251079617 
234.127409161894 0.2395983831092833 
234.137476853529 0.027436663931707593 
235.098924052472 0.037303845002576795 
236.106459411283 0.08814597134629454 
236.143201721626 0.03137026535002136 
237.078425813685 0.041720758135943836 
237.114538152308 0.027050525139603435 
238.122632679557 0.03161196697666598 
242.096417724091 0.02897848312395996 
244.111828723618 0.05434564044574238 
245.119368757414 0.04911515581282546 
248.107426486289 0.06272337236625425 
250.122909799007 0.07142339007381744 
252.101835087454 0.08470434726270669 
260.107330613422 0.04944693106367328 
266.118287707928 0.02729937691956952 
END IONS

BEGIN IONS
TITLE=vincorine.mgf
PEPMASS=369.2160187
CHARGE=1+
RETENTION_TIME=258.34
PRECURSOR_MZ=369.2160187
SMILES=C/C=C([C@@H]([C@H]1C(OC)=O)CC[C@@]23N4C)/C[N@@]3CC[C@@]21C5=C4C=CC(OC)=C5
INCHI=InChI=1S/C22H28N2O3/c1-5-14-13-24-11-10-21-17-12-15(26-3)6-7-18(17)23(2)22(21,24)9-8-16(14)19(21)20(25)27-4/h5-7,12,16,19H,8-11,13H2,1-4H3/b14-5-/t16-,19-,21-,22-/m0/s1
COMPOUND_NAME=vincorine.mgf
IONMODE=positive
SKELETON=Vincorinan
108.08032181966 0.3960163964318961 
117.05602015817 0.40392745088851634 
155.062853496841 0.3238820319517026 
156.079126312893 0.5043564430589436 
156.088751776966 0.30654639756285323 
168.079507405435 0.310880541384092 
173.080737328077 0.3424861824702399 
184.075188573983 0.5199190528262355 
189.077565682859 0.3433933944953438 
194.094789900649 0.3549530558705989 
209.081969144842 1.0 
209.091697167995 0.37777806631925015 
210.091162317236 0.6047086581071466 
212.072373423453 0.3528360396328021 
212.110440407329 0.3202070799421085 
214.04824717215 0.4526756544826266 
214.057110790896 0.28509152002330407 
214.088186005233 0.32813751685850595 
224.110243242684 0.4783944849939302 
227.076785968924 0.3907855786219372 
234.128905163957 0.43153710621380953 
237.115369282802 0.49556470984739975 
240.139229900498 0.34742588702509913 
252.101434866693 0.9220815707997033 
263.091275274123 0.28236292131681046 
264.099889820828 0.3411817241093148 
265.145822017972 0.4997334441332587 
646.730425221877 0.4422211696731119 
END IONS

BEGIN IONS
TITLE=10-hydroxy-lanciferine.mgf
PEPMASS=561.2228394
CHARGE=1+
RETENTION_TIME=423.863
PRECURSOR_MZ=561.2228394
SMILES=O=C(O1)C[C@]2(C3(COC(/C=C/C4=CC=CC=C4)=O)C(OC)=O)[C@@]1([C@]5([H])C[C@H]3[C@@]6(C(O6)C)CN5C)NC7=CC=C(O)C=C72
INCHI=InChI=1S/C31H32N2O8/c1-18-29(40-18)16-33(2)24-14-23(29)28(27(37)38-3,17-39-25(35)12-9-19-7-5-4-6-8-19)30-15-26(36)41-31(24,30)32-22-11-10-20(34)13-21(22)30/h4-13,18,23-24,32,34H,14-17H2,1-3H3/b12-9+/t18?,23?,24-,28?,29-,30?,31-/m0/s1
COMPOUND_NAME=10-hydroxy-lanciferine.mgf
IONMODE=positive
SKELETON=Secoakuammiline
SCANS=1
103.054147333796 0.09210296693493426 
103.060792793612 0.01626064701836605 
103.070796316855 0.0038512432435811217 
103.07718691026 0.0033727468755560966 
103.108451914859 0.0010411582158893508 
105.033986698842 0.0010219944130073285 
106.065562158876 0.005765521719282626 
107.073372254381 0.0024163792138557107 
108.080458269439 0.002310042346833833 
109.052223710353 0.001757304335613357 
110.05998246385 1.0 
110.06649184657 0.13064360585077406 
110.084248608082 0.05421304995066796 
111.057342410899 0.00378077197072855 
118.065232034393 0.005688244949448089 
118.072409758724 0.0011528652529177788 
120.080820125835 0.006904645493965981 
120.087205175245 0.00175654643296439 
121.088307735613 0.00958524754213929 
121.096816407734 0.0017332190489064033 
122.059539092838 0.0028167608217461804 
122.067490873558 0.0010112745832463277 
122.096371906007 0.002244106769731009 
123.067860930248 0.003985099008846951 
124.074883153499 0.0026269569954707507 
131.049112697427 0.2600537837410739 
131.056785280469 0.051431820698985484 
131.075188509648 0.011327169579350357 
134.059965351694 0.002062802001253665 
134.067762864483 0.0009988217348508837 
136.075519933458 0.001095549646432554 
138.056839151048 0.0011439509113486351 
138.091336787292 0.23001114781035478 
138.099088424901 0.04036562161397714 
138.118413190711 0.0106050622036879 
146.06075691372 0.005772669053799564 
146.069362869712 0.0013229966220591471 
148.074638705609 0.003930223341018493 
148.083598730296 0.0010773074375448174 
150.091589297313 0.0014614996197789933 
158.059766441806 0.005443973707028825 
158.069236021127 0.0012673095295905315 
160.07664539909 0.0024750229079982364 
162.056278308265 0.0012304588573133015 
170.060296870082 0.0021447883156414504 
172.075137309433 0.002149431446045047 
172.080166078157 0.0010389556101497229 
176.071205176908 0.0010120719437136175 
178.086181348936 0.011081503639788406 
178.095807383329 0.0021913504946193796 
180.100937864966 0.0014497652162141943 
182.061047002436 0.00113414994088164 
184.073533383649 0.003074412561962937 
186.053768160863 0.0027982429941373886 
186.058567566102 0.001051944655135738 
190.089814800218 0.0011422319568870595 
192.100641545509 0.0010990766284505325 
194.060282475888 0.003822882448322467 
195.065766216758 0.001452462412032994 
195.069731903292 0.0019625850027864644 
196.037866346588 0.0013183892380949217 
196.075288234679 0.0032544691350982957 
197.082994872665 0.001002262573810049 
204.065173527739 0.0029945944742255474 
204.077654106274 0.0011421419071135609 
208.075808990213 0.004475426862296707 
209.082940703641 0.001994938460453597 
210.055325107951 0.0016692438612327131 
210.091057332368 0.002761849993485553 
210.111540891622 0.0016098369903763945 
212.070868160896 0.0013537928632526798 
214.049613055107 0.0010981249527531693 
220.074374230182 0.003352668315430488 
221.083418491339 0.0018446008519372717 
222.054584543819 0.0011239411094014894 
222.091889192536 0.0047767673928402815 
222.098736225027 0.0013366515665632886 
224.069487759882 0.0023657462381755953 
224.105123926316 0.002439821455325448 
224.109973450158 0.0013636000844631715 
225.102626551389 0.0017888881704874661 
225.109761006185 0.001228817255802497 
226.049526866398 0.0009979939020090477 
226.084731759335 0.0010538759395404649 
226.089428203707 0.0010698749128558456 
228.065502354096 0.0023989142458546338 
230.080244838834 0.002645340041422896 
232.075771543207 0.001253374473643447 
233.082399539507 0.001994196184663371 
234.091627640362 0.010142360683135943 
234.102667218581 0.0012992103943613605 
235.085483787374 0.0010907102036160161 
235.098541755264 0.001706277563092954 
236.069753843643 0.0032214378624332465 
236.079240962062 0.0016409238911425207 
236.10758104663 0.002791503911305075 
236.116983556417 0.001360475884729258 
237.077312945984 0.0015037073745685766 
237.10167185063 0.0012133107238732107 
237.109919169705 0.0011316562848979498 
238.08550690013 0.0014716465298313804 
238.11004211022 0.0015194471373645812 
240.065048371588 0.012417863765436162 
240.074772156994 0.0035984631765770578 
240.10056279803 0.0013320371505126296 
241.072698197396 0.014233196878300564 
241.083949231151 0.002187760223823498 
241.100432972548 0.0009844440481299435 
246.088869813187 0.0012623710515567185 
247.096252985998 0.0016814066360627661 
248.072182292786 0.0012747344361858667 
248.093754125101 0.0011868034693970435 
248.106955253323 0.003246044304879233 
249.10140966314 0.009157032545472694 
249.11102631452 0.003242514588160975 
250.072282872877 0.0011696322863403088 
250.086757425618 0.0049125101012991584 
250.109993433589 0.003197983900819453 
250.121968776381 0.0015776886352302454 
251.117390306302 0.007644782357901556 
251.128875232123 0.0025851707751957218 
252.064750043277 0.004090175960382788 
252.076504794108 0.0010669950781255035 
252.093183551849 0.001209569263219004 
252.103292987079 0.0017440269750835598 
253.135727247027 0.0011729426410289818 
254.08161176712 0.014576171267246437 
254.087642301518 0.002950233728972841 
254.093517433762 0.002662594046830961 
260.069427959437 0.0012694209135422556 
260.105399477256 0.002249373021126927 
261.101201680892 0.0009828534292457833 
262.087356450031 0.002092883704331238 
263.080518659643 0.0010190467967771948 
263.117357606262 0.00442643470678446 
263.126954119241 0.001822090361920002 
264.101605760344 0.0013393350888806891 
264.125463647852 0.0015466892448730719 
265.09627972315 0.011045778687347772 
265.107736579278 0.0027614319750142156 
265.132477478462 0.005912925971077419 
265.142843827446 0.0012858043075826794 
266.080951026929 0.0010176665544788432 
266.117243002584 0.001082404137523389 
267.111497448243 0.0016803742867071492 
268.060218472516 0.001619869824359968 
268.096381608859 0.0038117190111089387 
273.102230755423 0.0012408214180163228 
274.088448716041 0.0010878045845687503 
275.116970590261 0.0012895821006834603 
275.12062527557 0.001002949374251742 
276.102945845238 0.0021552348707102073 
276.126487044202 0.0016904647447323325 
277.096374777228 0.003355852287899088 
277.104825889757 0.0010312920032871098 
277.133852363279 0.00619465479390029 
277.142781048575 0.0013248157837524035 
278.081977344656 0.003185312471737361 
278.103318381654 0.002053461046440876 
279.112164038715 0.003159815298343104 
280.096868749561 0.0016166837031982907 
281.129366411164 0.002714670553587331 
282.109491220767 0.00111097198866037 
284.093062762125 0.0015549197160365364 
289.132368993869 0.001048472953130558 
291.113889952773 0.010742158588785269 
291.12554338307 0.003062090783845188 
291.151493578271 0.0015602629297117568 
292.096778566441 0.0019465836854422724 
292.121053896499 0.0018897722404871988 
293.12888928689 0.001636964631144603 
294.114560339187 0.0012267972889744112 
295.108142350868 0.0009854687793919238 
297.060824567781 0.001107958348952053 
297.120836091537 0.0025101247394465473 
297.128719747043 0.0012238471333797323 
301.095363507639 0.0012912459704679717 
305.127396361943 0.001096130379570539 
307.107113546231 0.0025442596590102224 
309.124052664492 0.002408393889038755 
311.140333663014 0.0012469733216314207 
312.085416715103 0.001931919831870627 
317.130854158886 0.0010060403669108298 
319.106489743559 0.000976792552082855 
321.123303927319 0.001598715941017203 
323.139403534438 0.006365575514743843 
323.155335906439 0.0011900778823106107 
325.151099185441 0.0018437044562527069 
335.135997519433 0.002061637800277416 
335.141720277471 0.0014232782766543913 
356.130567746834 0.001107336595309872 
END IONS

BEGIN IONS
TITLE=Lanciferine.mgf
PEPMASS=545.2268169
CHARGE=1+
RETENTION_TIME=1783.916
PRECURSOR_MZ=545.2268169
SMILES=O=C(O1)C[C@]2(C3(COC(/C=C/C4=CC=CC=C4)=O)C(OC)=O)[C@@]1([C@]5([H])C[C@H]3[C@@]6(C(O6)C)CN5C)NC7=CC=CC=C72
INCHI=InChI=1S/C31H32N2O7/c1-19-29(39-19)17-33(2)24-15-23(29)28(27(36)37-3,18-38-25(34)14-13-20-9-5-4-6-10-20)30-16-26(35)40-31(24,30)32-22-12-8-7-11-21(22)30/h4-14,19,23-24,32H,15-18H2,1-3H3/b14-13+/t19?,23-,24+,28?,29+,30+,31+/m1/s1
COMPOUND_NAME=Lanciferine.mgf
IONMODE=positive
SKELETON=Secoakuammiline
102.045878761291 0.0012928996519023966 
103.053986950075 0.15187668376769872 
104.05734341677 0.017898855782555914 
106.064682029937 0.0045984273618711454 
107.071928880446 0.0030736512364385234 
108.07961776587 0.00364028450901254 
109.053212248348 0.001934535142790921 
110.059537797156 1.0 
110.153981752413 0.05529297055552057 
111.062886944152 0.09377745518463641 
112.065270697697 0.006243612877374974 
115.05326476872 0.0013084211547128284 
118.06451466007 0.00406876908948521 
119.069988744273 0.0011813284802829713 
120.080101626536 0.012627058407782991 
121.087089682312 0.008667679791427938 
122.059255946473 0.004010456016414188 
122.092806386718 0.004341807792864149 
123.067458657846 0.004647497200183071 
124.073974557994 0.002380884755546894 
130.064753812826 0.004868508312573241 
131.048515949378 0.2165653112498793 
132.052096079451 0.03170381085305606 
133.055924991272 0.002418712041959277 
134.059185109178 0.0019663830281471902 
136.074526188765 0.0011938149372281404 
138.090430450027 0.3941182769225315 
138.195875669981 0.013915298826287475 
139.093767170065 0.05163291135718285 
140.097398011653 0.003802312674032055 
142.064534417871 0.005397513199873074 
143.069675379427 0.0015110488551693634 
144.079541973245 0.0029789773863833926 
146.059550443002 0.0012649401292115384 
148.074590435815 0.0024780134372662205 
152.067163551959 0.001489275879279582 
152.102845959347 0.0011647918602646333 
154.064841022357 0.0028776274660005296 
155.069695642949 0.0010535020358510541 
156.07960229828 0.0023344119683658556 
160.074591092574 0.0014635269417775144 
166.064663986408 0.0025184181938684236 
166.079858009736 0.00106044605589864 
167.071807607017 0.002941195445308216 
168.079226908991 0.004298855452771646 
170.064265458454 0.001491918275747675 
172.075879640598 0.0010288229391342935 
178.084320150886 0.010368386550037086 
179.077290719994 0.00282027901192098 
179.084758453344 0.0010806865655060287 
180.079990863513 0.009754839403820117 
181.084459387963 0.003288756118657617 
182.087630629219 0.0015568785630227532 
188.069721320173 0.0031666318503793494 
191.071805082483 0.0024261589830195107 
192.080057704872 0.004252781498442851 
193.086215065544 0.00407951181209964 
194.087112238056 0.005660136903756479 
195.091278645484 0.0017632287034335592 
204.079457628872 0.003951857473833937 
205.085536903629 0.0036310649774978915 
206.09351924548 0.007114065062108169 
207.095982957714 0.0029495451708091863 
208.087521403218 0.0029461762183699523 
208.103705265304 0.0015897291986767819 
209.098351171578 0.0025303378340985187 
210.054335603472 0.0017181307044305382 
210.090458390366 0.0010080307622767604 
212.071048912483 0.0011748605862760481 
214.084212805287 0.001185851677669266 
216.080066096649 0.0010379867164956957 
217.086741438502 0.003801205835573891 
218.093095999923 0.007453643925533475 
219.096139126222 0.004708409385536671 
220.101171401782 0.005865288484458864 
221.105407270539 0.004926746153607536 
222.110219526085 0.0027853641328482344 
223.115830306842 0.0010710187334985483 
224.069551795272 0.0022618707651706174 
224.078281350807 0.001721513054355765 
224.106988790246 0.001004423334586857 
225.07601514106 0.0034765888722748614 
226.083235460407 0.0014611287917848264 
230.092755583859 0.0016896290988448995 
231.097330405774 0.0024137560027178346 
232.102068671191 0.003911865978145815 
233.105721669003 0.007997066568913112 
234.104845196605 0.0063636450766866946 
235.118315533853 0.005241691162595702 
236.072776498957 0.0033226579416741476 
236.110454185759 0.002651412976165975 
237.079726649794 0.0012410359224730768 
238.084514639812 0.011325956402725544 
239.087763325948 0.0031337554503291813 
245.106844677718 0.001675720447232816 
246.106575658982 0.002000451804450707 
247.119725325109 0.00537198995848119 
248.117831021581 0.0028820084439201334 
249.107163046168 0.00646588232287261 
249.120099592547 0.001951576744973598 
250.110162903088 0.002833740393616077 
252.100653746314 0.0032475804913229115 
259.117996352438 0.0017422492709448824 
260.112719414905 0.0011169968442737031 
261.110508939315 0.001313417386412249 
261.125911675429 0.0019161682200708149 
262.109026708144 0.001430650541727346 
263.115880228768 0.002203842131032978 
264.109677824327 0.0014617491984438716 
265.127550626065 0.0015681860412005673 
266.118948283906 0.001341940634090645 
275.117323878672 0.005729860512589875 
276.118033266128 0.002692388671786636 
277.129671798661 0.0024377313191896416 
278.121246030909 0.0015857377784268115 
279.134592924526 0.0010289405278382754 
281.12607842695 0.009843191701638398 
282.128995031817 0.003219693108941245 
293.12689409476 0.0044277835827825 
294.130861781171 0.0024455626650402803 
295.137808743949 0.0010950136309114218 
296.095619873456 0.0021637805561873554 
307.141585780328 0.011890155455152275 
308.144781565327 0.004197759054046798 
309.15560440893 0.004408338677727905 
310.159202015732 0.0016853707594509215 
325.151863843917 0.002430717219984556 
335.160587991911 0.0010089401424029092 
340.132617350976 0.0011539244379728862 
353.148657431043 0.0022211465300562808 
397.173494502302 0.0012476759226462137 
501.200201021951 0.0033082958366900048 
502.204212137783 0.001850347401964669 
527.215966816288 0.007799502087585961 
528.218840463893 0.005023256489819508 
529.223128050623 0.001360136481220383 
545.226816934749 0.0026587692265517974 
546.229393654755 0.0016283675482796443 
END IONS

BEGIN IONS
TITLE=lonicerine.mgf
PEPMASS=371.1985016
CHARGE=1+
RETENTION_TIME=181.769
PRECURSOR_MZ=371.1985016
SMILES=C/C=C(CN1)\[C@@H]2C[C@@]1([H])[C@@]34NC5=C([C@]3(C2(CO)C(OC)=O)CCO4)C=CC=C5
INCHI=InChI=1S/C21H26N2O4/c1-3-13-11-22-17-10-15(13)19(12-24,18(25)26-2)20-8-9-27-21(17,20)23-16-7-5-4-6-14(16)20/h3-7,15,17,22-24H,8-12H2,1-2H3/b13-3-/t15-,17-,19?,20-,21-/m0/s1
COMPOUND_NAME=lonicerine.mgf
IONMODE=positive
SKELETON=Secoakuammiline
105.071436511355 0.0008436227908455981 
106.065700289414 0.2793727222454852 
106.072170818528 0.03725076760799168 
106.085922297187 0.013598589900552913 
107.073528688731 0.021035345631284674 
107.080202336813 0.0041619793419256194 
107.094829870773 0.0012075642218733243 
108.081505914915 1.0 
108.088420493205 0.05681718132834993 
108.096157480838 0.06368564281452627 
108.105606647812 0.059200143661643265 
108.212117384798 0.0005179701247557039 
108.245935671408 0.0006788777944581178 
108.294596276098 0.0005918584462892584 
108.305851137571 0.0005194599429884811 
108.396053601598 0.0005339063295876693 
108.546036167174 0.0006115674475471369 
109.052207385386 0.0006456366552011472 
109.088439641424 0.0012996545239571736 
115.054695996135 0.0005099317858938029 
117.058022656869 0.0005841578633351487 
117.070439576891 0.0007767458623852364 
118.065332837844 0.0008809697832236432 
120.081764525562 0.0010660037979707793 
122.060485825062 0.001437150968079759 
127.054411151756 0.0008925869081614413 
128.063391954635 0.0006898259529122112 
129.071239035266 0.0028666438978626136 
129.079022691301 0.0005317832085384693 
130.066446333493 0.004400530675369161 
130.074993742354 0.0006639228020062281 
131.07319154404 0.0007479626815385558 
132.08153903872 0.002485646003277701 
136.077732189789 0.0006411289354856846 
141.070404298711 0.001387698468308426 
142.066416801392 0.0018283377626209523 
143.07354265735 0.004303852766955137 
143.080342792507 0.0008618716796076829 
144.081509152135 0.008900912905967917 
144.089451999931 0.0017628584303455012 
153.058486639075 0.0006121734781474026 
153.069885350456 0.0005588478201946984 
154.065951258373 0.001983960580319194 
154.086776917065 0.0005769312295405933 
155.073070305405 0.001551455958727487 
156.081343061165 0.005407406630421192 
156.090838214091 0.0012524131715573442 
157.08875953858 0.0011412247658575349 
158.097402357998 0.007824450003314623 
158.106700118799 0.0012195010610989948 
167.073973134789 0.009275456935492397 
167.083015258815 0.001919652694620828 
167.096170225915 0.0005946079891649583 
168.082067892109 0.0277081352601224 
168.090051527581 0.008353514213859489 
168.108750716978 0.0014142162930093339 
170.06157535102 0.0005468855548721184 
172.075832531272 0.0014936313081684903 
174.093259736762 0.0009976881552149932 
179.085437617315 0.0005518870275717909 
180.081221356521 0.0014489342437498374 
181.09076237063 0.0006290734411411031 
182.097511775502 0.0013590727110848553 
184.077072129618 0.0026068924022962367 
184.086103087069 0.0005468344509347657 
186.092581477556 0.0037890095486322354 
186.102395974234 0.0005417280850960276 
191.073318729601 0.0007269011461883091 
192.081879384164 0.0008505843386991069 
193.089259050459 0.0017019356560310618 
194.059490306739 0.000602715977071199 
194.097424047452 0.005703126402945735 
194.107358281434 0.001037861388332023 
196.076547978851 0.0020632354582445587 
196.111726212013 0.0007346029039455764 
200.109005273219 0.0005125078774747438 
204.081312027997 0.002059149660691674 
205.089904351167 0.001567556636001507 
206.096538351094 0.002092190999497352 
206.103079202643 0.0008829812140583659 
207.104317070605 0.0008153408313746288 
207.108003134575 0.0005546786955321397 
208.114223276186 0.0010507666010175472 
212.108475445398 0.0005605000130067492 
217.088580455298 0.0007332247759272763 
217.09526228534 0.0005638885648856371 
218.097850148063 0.0027151865965029465 
219.106084780548 0.001715898191558368 
220.078197165037 0.0023931453592338273 
220.113040846152 0.0019899310977948103 
221.108958658517 0.0006417493993818857 
221.121478607094 0.0006988610283387696 
222.092535691434 0.001831063305946434 
223.099487353023 0.0005558558482959899 
224.108321610436 0.0009597059299867667 
230.097875677791 0.0009582592438127732 
231.106120892786 0.0013884159373796351 
232.113593921328 0.002212513499746998 
232.124778394862 0.0005835751609690113 
233.084064523241 0.0009721261167972516 
233.119135632617 0.0010044105467114323 
233.125329880207 0.0009077620083763465 
234.126915624426 0.0029458776576774645 
236.107919564898 0.0008772850970345451 
238.087556709439 0.0008104678317916839 
240.102399040602 0.000846231693000439 
243.106127348263 0.0006457240941218724 
244.112358163908 0.000703308497435153 
246.129032267632 0.0009125342266312772 
247.138112718387 0.0005129217438442413 
248.108318097972 0.0010237654287318253 
248.144069296711 0.00087795137825389 
250.124753024085 0.0007248031155779738 
258.127899008377 0.0007907797252471073 
262.124304868231 0.001189966509718559 
END IONS

BEGIN IONS
TITLE=corynoxeine.mgf
PEPMASS=383.1957984
CHARGE=1+
RETENTION_TIME=168.127
PRECURSOR_MZ=383.1957984
SMILES=CO/C=C(\[C@H]1C[C@H]2[C@@]3(CCN2C[C@@H]1C=C)C4=CC=CC=C4NC3=O)/C(=O)OC
INCHI=InChI=1S/C22H26N2O4/c1-4-14-12-24-10-9-22(17-7-5-6-8-18(17)23-21(22)26)19(24)11-15(14)16(13-27-2)20(25)28-3/h4-8,13-15,19H,1,9-12H2,2-3H3,(H,23,26)/b16-13+/t14-,15-,19-,22+/m0/s1
COMPOUND_NAME=corynoxeine.mgf
IONMODE=positive
SKELETON=Corynantheanspiro
105.07009020372 0.057746615832385495 
106.064529630394 0.06900546773693829 
108.080138011021 0.29617268759106646 
108.084744969449 0.08510950732436752 
109.064821135734 0.1148283205083842 
115.053472821632 0.19322949236580614 
115.061664401368 0.05283677323348545 
117.057187471205 0.2835110309045326 
117.064671060131 0.06131908442432039 
118.064819753141 0.2003680675059392 
122.096253627093 0.07358836335649013 
130.06461147885 0.1525003607744314 
132.044482942476 0.533627021823879 
132.0521745436 0.08821708120812624 
132.080626140026 0.7579604425706588 
132.088351974632 0.13800803893363872 
142.064930544003 0.5330456448189947 
142.072899492594 0.11845318544426461 
144.08131479521 0.07019139406860973 
145.052033876372 0.04955581555452453 
158.059036118956 0.0516367417853343 
160.075763807993 1.0 
160.084037743896 0.170917856705051 
160.09295824816 0.04681162816078488 
160.105395156694 0.051882052881514436 
172.076271727622 0.05791683929529245 
213.102874792596 0.04815056423052115 
237.100549297908 0.05239867152250948 
237.104816190724 0.060064572157731096 
267.151005142895 0.05703825657243083 
END IONS

BEGIN IONS
TITLE=Corynoxine.mgf
PEPMASS=385.2118258
CHARGE=1+
RETENTION_TIME=239.927
PRECURSOR_MZ=385.2118258
SMILES=CC[C@@H]1CN2CC[C@]3(C4=CC=CC=C4NC3=O)[C@@H]2C[C@@H]1/C(C(OC)=O)=C\OC
INCHI=InChI=1S/C22H28N2O4/c1-4-14-12-24-10-9-22(17-7-5-6-8-18(17)23-21(22)26)19(24)11-15(14)16(13-27-2)20(25)28-3/h5-8,13-15,19H,4,9-12H2,1-3H3,(H,23,26)/b16-13+/t14-,15+,19+,22+/m1/s1
COMPOUND_NAME=Corynoxine.mgf
IONMODE=positive
SKELETON=Corynantheanspiro
104.049372537296 0.025942216071798883 
105.069856178756 0.03910275554326664 
108.080701987618 0.09629227455972984 
110.096489042825 0.48541677432517405 
110.103583999373 0.04029976155178581 
115.054194425234 0.21101475721300814 
116.049358663449 0.03364537522541175 
117.057307078268 0.19696607700004898 
118.065158846306 0.1633801628266415 
123.080478909548 0.05863998950371497 
124.112171146659 0.030946390425562614 
129.054565589056 0.047213920865795865 
130.065090589641 0.09072761603461894 
132.044518352504 0.4097733903067747 
132.052487122821 0.03918901098016108 
132.080948558205 0.6140246206337904 
132.088586322423 0.05672748785108697 
132.107082723565 0.024748599209020363 
138.054995696021 0.026543286102287775 
139.075446799333 0.041646057752385654 
140.049635498881 0.04346091174060485 
142.065189299027 0.5425666638256006 
142.073255583301 0.050766953614339375 
144.080912345541 0.12490379523922336 
158.060107671762 0.06172755160729397 
159.091628168589 0.026023891128558685 
160.075863696133 1.0 
160.084506857395 0.06912494941448312 
160.105508477488 0.024808077038973836 
162.09134656174 0.031936423652613226 
172.07574546064 0.03852826178432819 
187.086674382193 0.15223188669381113 
213.102329543732 0.031543433748240826 
241.13366365347 0.0922690565624935 
END IONS

BEGIN IONS
TITLE=Isocorynoxine.mgf
PEPMASS=385.2119582
CHARGE=1+
RETENTION_TIME=239.98
PRECURSOR_MZ=385.2119582
SMILES=O=C1NC2=CC=CC=C2C13[C@@](C[C@H](/C(C(OC)=O)=C\OC)[C@H](CC)C4)([H])N4CC3
INCHI=InChI=1S/C22H28N2O4/c1-4-14-12-24-10-9-22(17-7-5-6-8-18(17)23-21(22)26)19(24)11-15(14)16(13-27-2)20(25)28-3/h5-8,13-15,19H,4,9-12H2,1-3H3,(H,23,26)/b16-13+/t14-,15+,19+,22?/m1/s1
COMPOUND_NAME=Isocorynoxine.mgf
IONMODE=positive
SKELETON=Corynantheanspiro
105.069757333622 0.032519178558296266 
108.080797758585 0.0935779969367002 
110.096410002742 0.4539298075809114 
110.103711024112 0.04461657800817319 
115.054241388508 0.21581443052109806 
116.049447946084 0.03329302403795299 
117.057272843231 0.193294372416818 
118.06520210531 0.16116624310263528 
123.080445038528 0.046052543379634124 
124.112079090447 0.03386155171284799 
129.054785822676 0.04457378247781665 
130.065159351621 0.08191529468471377 
132.04442412107 0.384851350916762 
132.052495014668 0.038444722472244904 
132.080936901668 0.6105784971542618 
132.088581660919 0.059705828677616174 
138.054954628011 0.0320447468050589 
139.075345000853 0.0424917189002033 
140.049413973417 0.040034046566341595 
142.065151687828 0.5423724183678649 
142.073178575045 0.053700912519271546 
144.080930734454 0.10971243495912436 
158.060044464315 0.041697570244533154 
160.075752838862 1.0 
160.084112048728 0.08311167095526055 
162.091416346881 0.0326427605809963 
172.075835901041 0.03389003040439355 
187.086506240787 0.10680383063586525 
213.102194577065 0.027986126421367618 
241.133480636387 0.0666550362531806 
END IONS

BEGIN IONS
TITLE=Isorhynchophylline.mgf
PEPMASS=385.2116063
CHARGE=1+
RETENTION_TIME=234.994
PRECURSOR_MZ=385.2116063
SMILES=CC[C@H]1CN2CC[C@]3(C4=CC=CC=C4NC3=O)[C@@H]2C[C@@H]1/C(C(OC)=O)=C\OC
INCHI=InChI=1S/C22H28N2O4/c1-4-14-12-24-10-9-22(17-7-5-6-8-18(17)23-21(22)26)19(24)11-15(14)16(13-27-2)20(25)28-3/h5-8,13-15,19H,4,9-12H2,1-3H3,(H,23,26)/b16-13+/t14-,15-,19-,22-/m0/s1
COMPOUND_NAME=Isorhynchophylline.mgf
IONMODE=positive
SKELETON=Corynantheanspiro
105.069795056836 0.034909362226380025 
108.080676962392 0.20500072269986255 
110.096203113126 0.2249414733227658 
110.103611731182 0.026362253206004695 
111.044079880989 0.0320722227405019 
115.054085542128 0.1967704725255938 
116.049496355297 0.03333401666173522 
117.057133706562 0.1569775370468762 
118.064991061246 0.15158759742935057 
122.096258897682 0.027818839764427873 
123.080388665364 0.03826379465874753 
124.111943653023 0.027922844482596947 
129.054470838239 0.04306962862836371 
130.064932399773 0.23103793713832477 
132.044380036238 0.3422453503973248 
132.05250024737 0.03957720256296197 
132.080780818374 0.5340519759334941 
132.08856789509 0.059438039797740136 
140.04931077595 0.03500733710525273 
142.064945186151 0.476431776532394 
142.073159823378 0.053691114475257845 
144.080804663041 0.14345796469300873 
154.064993152807 0.051991388460585236 
158.059930291256 0.16811460218075183 
159.067536371724 0.0325061829876052 
159.091404194005 0.04268093221475677 
160.075628740981 1.0 
160.08427299707 0.10252952959646122 
172.075697221926 0.08937939500612394 
187.086525460565 0.28601337535269156 
187.096256634834 0.03437578951456591 
213.102217840866 0.07525239441875513 
237.102067997078 0.041401373089700065 
241.1333750623 0.23439154477195717 
241.143601907078 0.030815998212669147 
265.133277348256 0.04353567995246597 
267.14916907166 0.0410274109447589 
END IONS

BEGIN IONS
TITLE=Isorotundifoline.mgf
PEPMASS=401.2065924
CHARGE=1+
RETENTION_TIME=226.367
PRECURSOR_MZ=401.2065924
SMILES=CC[C@H]1CN2CC[C@@]3(C4=C(NC3=O)C=CC=C4O)[C@@H]2C[C@@H]1/C(C(OC)=O)=C\OC
INCHI=InChI=1S/C22H28N2O5/c1-4-13-11-24-9-8-22(19-16(23-21(22)27)6-5-7-17(19)25)18(24)10-14(13)15(12-28-2)20(26)29-3/h5-7,12-14,18,25H,4,8-11H2,1-3H3,(H,23,27)/b15-12+/t13-,14-,18-,22-/m0/s1
COMPOUND_NAME=Isorotundifoline.mgf
IONMODE=positive
SKELETON=Corynantheanspiro
103.054084426276 0.15993195460899598 
108.080853503707 0.11514994655044816 
110.096345762588 0.3812758408025656 
110.103622945932 0.0365917029849519 
120.080758618811 0.13525812022037662 
124.111868314649 0.03288134610640572 
129.054540769257 0.10603009620919332 
130.06517528672 0.35206866211660226 
130.0727938187 0.03944037085765973 
131.049164977148 0.07137274895156648 
133.05229357921 0.13541061590329742 
134.060019288422 0.14720586300468713 
139.075232206387 0.03804596661458762 
146.060175047354 0.03951373242332045 
148.03924122721 0.4936719842118247 
148.04741985095 0.052294095880273 
148.075619657393 0.5071499054354083 
148.084496907971 0.04854234849107803 
158.060037027247 0.3972953704465093 
158.068924320565 0.04387525696899926 
160.075500350706 0.06559230326453416 
161.046909683831 0.05776243729956418 
170.05994080897 0.027651484252939725 
174.054990735915 0.03210044815393471 
176.070614253105 1.0 
176.079336357136 0.0891145465011101 
176.101483275923 0.03392619439190856 
188.070450551973 0.04634240605213387 
203.081739029082 0.024836452594359015 
229.096680433264 0.02985723624701916 
285.159310011093 0.03005852314776745 
END IONS

BEGIN IONS
TITLE=Mitrinermine.mgf
PEPMASS=385.2140797
CHARGE=1+
RETENTION_TIME=1007.463
PRECURSOR_MZ=385.2140797
SMILES=O=C1NC2=CC=CC=C2[C@]13C(C[C@H](/C(C(OC)=O)=C\OC)[C@@H](CC)C4)N4CC3
INCHI=InChI=1S/C22H28N2O4/c1-4-14-12-24-10-9-22(17-7-5-6-8-18(17)23-21(22)26)19(24)11-15(14)16(13-27-2)20(25)28-3/h5-8,13-15,19H,4,9-12H2,1-3H3,(H,23,26)/b16-13+/t14-,15-,19?,22+/m0/s1
COMPOUND_NAME=Mitrinermine.mgf
IONMODE=positive
SKELETON=Corynantheanspiro
104.051170764458 0.06387135436191783 
105.070486286174 0.04599323376546504 
108.08184289366 0.14483747684517087 
110.097592957605 0.27835135322396437 
111.099683084032 0.03796824375697168 
115.05539222365 0.35379050919287436 
116.054894699072 0.11423029149503683 
117.059054176715 0.3773872588674334 
118.06533623998 0.18067768799059905 
119.069830784953 0.02462953879388864 
124.112740443529 0.02872295467779169 
129.056115339274 0.05544077112865252 
130.065991094412 0.12976019007493514 
131.071392864168 0.037737817359388186 
132.045742764431 0.4016304854059764 
132.080366435433 0.5422118786739721 
133.049017017673 0.05486688468264176 
133.083147975253 0.08089183431214154 
140.050747197884 0.06842381057479956 
142.066343506789 0.3810150361277279 
143.070452446664 0.08015817553023813 
144.081280415738 0.11799994585544045 
145.08273216803 0.025751496661161968 
154.066219072171 0.03045466287899471 
158.063850405773 0.05698930553178446 
160.077032668505 1.0 
161.080089073848 0.17650103172917073 
171.102528752759 0.03254155480232418 
172.079978549753 0.0346051829191351 
187.088738264423 0.06274257795095879 
213.104042874004 0.04496197721248206 
215.1189328532 0.0746766353836532 
226.145076291378 0.039625347179045506 
241.135047735915 0.1334837297892813 
242.137856956673 0.03718745167712773 
265.134412537184 0.04279502475737043 
267.150361194691 0.07262547428110479 
269.166134328788 0.1331467028486921 
270.169373283915 0.043130941275636644 
353.187556766347 0.09911147860073939 
354.190461272465 0.03884348138505454 
385.214079694879 0.13057768115370125 
386.217014511376 0.055125769093643015 
END IONS

BEGIN IONS
TITLE=jerantiphyllineB.mgf
PEPMASS=417.2019653
CHARGE=1+
RETENTION_TIME=165.557
PRECURSOR_MZ=417.2019653
SMILES=CC[C@@]1(/C=C(C(OC)=O)\O)CCCN2CC[C@]3(C(Nc4c3cc(O)c(OC)c4)=O)[C@]12[H]
INCHI=InChI=1S/C22H28N2O6/c1-4-21(12-16(26)18(27)30-3)6-5-8-24-9-7-22(19(21)24)13-10-15(25)17(29-2)11-14(13)23-20(22)28/h10-12,19,25-26H,4-9H2,1-3H3,(H,23,28)/b16-12-/t19-,21-,22+/m0/s1
COMPOUND_NAME=jerantiphyllineB.mgf
IONMODE=positive
SKELETON=SpiroAspidosperma
110.096502759481 0.13002572306738344 
112.112028854393 0.026815019199940893 
118.064637199672 0.054264444143420416 
122.096571117321 0.043380899155579286 
124.111891185603 0.47732893001167 
124.119316066076 0.07721751892286195 
135.031396479072 0.05667387192650636 
138.127891100855 0.030042362291765216 
146.060192997693 0.1467052234994817 
152.107010614483 0.10183900735472554 
163.026514587472 0.17232180564197927 
163.035230283806 0.03172597363367484 
174.055052520429 0.22345522150741087 
174.064410124392 0.03312058982682023 
178.049846985325 1.0 
178.058222322723 0.15429552044842604 
178.07712124738 0.052152066719160756 
190.049854642852 0.06588543202221268 
191.057203578417 0.0858253656536564 
206.081062518164 0.10050468209084858 
285.122893564019 0.024978112574458176 
301.154799960945 0.07323837554229602 
END IONS

BEGIN IONS
TITLE=Carapanaubine.mgf
PEPMASS=429.2031274
CHARGE=1+
RETENTION_TIME=1541.114
PRECURSOR_MZ=429.2031274
SMILES=COC(C([C@]1(C2)[H])=CO[C@H]([C@@]1(CN3CCC4(C(NC(C=C5OC)=C4C=C5OC)=O)[C@]23[H])[H])C)=O
INCHI=InChI=1S/C23H28N2O6/c1-12-14-10-25-6-5-23(20(25)7-13(14)15(11-31-12)21(26)30-4)16-8-18(28-2)19(29-3)9-17(16)24-22(23)27/h8-9,11-14,20H,5-7,10H2,1-4H3,(H,24,27)/t12-,13-,14-,20-,23+/m0/s1
COMPOUND_NAME=Carapanaubine.mgf
IONMODE=positive
SKELETON=Ajmalicinespiro
103.051129815557 0.062160977058581555 
106.065218890423 0.07670667650560174 
108.079128317018 0.17000265031064837 
115.051228772936 0.0347633350113789 
116.046371509229 0.11160690708747333 
117.055812340432 0.04843648629857227 
118.062300948609 0.13738667741649463 
119.068940242514 0.029040417964164116 
124.037203313467 0.09574457982401356 
130.062306057874 0.13924955024664362 
131.059698693761 0.031437117624856514 
132.045072383096 0.03890410381465462 
132.073117271917 0.03768891942425756 
133.05152760626 0.05956202526371075 
134.059495050581 0.1243773344658122 
135.058568575889 0.04815551460844446 
142.06328694669 0.025599365088286353 
144.043319717173 0.28752488602937437 
145.047873917494 0.041116769198641996 
146.058847607386 0.31573688568633596 
147.064104421807 0.10772606737990871 
148.037951864774 0.04505411333542322 
148.066929056149 0.03417343012700657 
148.073991161722 0.06625539207397226 
149.045533747451 0.04013393516865327 
149.075594813466 0.03396452556774547 
151.073003907843 0.04034647360905931 
158.057996800702 0.13982743425218844 
159.066161651365 0.08892974448001341 
160.073150442094 0.1294720842827857 
161.080336699783 0.1553622276951164 
162.054364588783 0.3522724596869339 
163.056633134448 0.05481268796250222 
167.073116935478 0.02939473591132167 
171.065100235457 0.043901451081418796 
172.038247699275 0.025897265819374786 
173.048649864322 0.025954327443700277 
174.05390522897 0.45614157407133743 
175.059638351003 0.13059931421395032 
176.06788408869 0.2163126378149424 
177.076871119875 0.0824652152783868 
178.084088973137 0.1304432026799631 
179.090103038613 0.029218478140266842 
186.05558765161 0.051508617870264624 
187.061659257215 0.05620582108998022 
188.066413751498 0.09380835104648508 
189.07718082842 0.7224533639806794 
190.050061249748 0.21873585511764326 
190.065772768583 0.11470307072647098 
190.078822472757 0.09312251654506086 
191.052054857054 0.08112625120584288 
192.065439593808 0.23275939007000793 
192.096024562171 0.05140212092684318 
193.065769994044 0.02811879302818099 
199.095993317962 0.03780836267490475 
202.088593812477 0.05753368971209486 
203.089339205517 0.03932572124061671 
204.06503167096 0.2514689358881617 
205.071133777282 0.41215034189976396 
206.077232932268 0.08267491444632491 
210.109337604097 0.04730926605775739 
215.080232799636 0.025990671100324676 
216.088284168492 0.06593662801993692 
218.081140586086 0.2050259483339624 
219.086344585191 0.0555654827804908 
220.09618174726 1.0 
221.097768883671 0.1562550965183058 
222.110295379107 0.05723827940088444 
223.115212046982 0.026123501569109878 
229.093872064662 0.02793072756599249 
230.10591170503 0.13461930734349237 
231.105369774862 0.02562543212903282 
232.097553919745 0.0375621793402713 
246.104502482074 0.043407126961508474 
247.107566749514 0.028328937952206226 
261.12261843077 0.1759740860667791 
262.127314317106 0.030992175527118682 
273.121187084282 0.165602456309847 
274.128898356442 0.038514769788784285 
297.124317542231 0.034642554492470355 
299.141107066493 0.054366302002656124 
309.086926589541 0.03065278071852974 
310.096486808699 0.03709458120488839 
325.124093639401 0.12112782104249752 
326.117771064569 0.046269927598552064 
327.166964020993 0.039253915749192424 
353.148667602589 0.02507890609518152 
369.182149775521 0.042001711315760526 
397.179081565153 0.5502330771366374 
398.1824819507 0.19088913319337236 
399.180977788761 0.029591580830356377 
429.203127481176 0.2616610519165331 
430.206463526417 0.12188851349550779 
431.208586414104 0.024700158776380158 
END IONS

BEGIN IONS
TITLE=Isocarapanaubine.mgf
PEPMASS=429.2014741
CHARGE=1+
RETENTION_TIME=209.469
PRECURSOR_MZ=429.2014741
SMILES=[H][C@@]([C@]1(C2=C3)C(O)=NC2=CC(OC)=C3OC)(C4)N(CC1)C[C@@]5([C@]4(C(C(OC)=O)=CO[C@]5(C)[H])[H])[H]
INCHI=InChI=1S/C23H28N2O6/c1-12-14-10-25-6-5-23(20(25)7-13(14)15(11-31-12)21(26)30-4)16-8-18(28-2)19(29-3)9-17(16)24-22(23)27/h8-9,11-14,20H,5-7,10H2,1-4H3,(H,24,27)
COMPOUND_NAME=Isocarapanaubine.mgf
IONMODE=positive
SKELETON=Ajmalicinespiro
108.080722340805 0.1918858276425073 
124.039186035972 0.0658844890263372 
134.060634121843 0.07169260379427049 
144.044789994651 0.0769745392536268 
146.060001909143 0.22766325715402674 
147.067962406903 0.07786972541692391 
158.059949368663 0.06434166182562803 
160.075626574419 0.09727538364908579 
161.083456613958 0.14533693331111439 
162.054700928053 0.1744634487388504 
174.055102224451 0.29139248838359183 
175.062902854352 0.14423976357070087 
176.070361948347 0.14107546934053203 
177.078379410464 0.08211494207965779 
186.054958790364 0.061547315459944726 
187.06299121132 0.10415017467642666 
188.070672629345 0.0963767669691755 
189.078401547007 0.7424107264631123 
189.087496434405 0.0905107145873309 
190.049718591269 0.36624362123427845 
190.086069732435 0.3454163354768901 
192.065649045234 0.39527675037643367 
192.101607473234 0.12401853574830586 
202.086542097666 0.08748790534442327 
202.110149750062 0.07073327411721671 
203.057581556711 0.0729928767943061 
204.065620365102 0.3019877818815598 
205.07341646734 0.4052346586522811 
215.081383069991 0.1493289587893707 
216.089482419832 0.19603186902287573 
218.081201243653 0.49619695072336856 
218.09148281341 0.0682185982361189 
219.088450633641 0.06663231782497624 
220.096872714195 0.5686739993165172 
220.106755564378 0.0713529469150186 
229.097064603436 0.14736772767701498 
230.104841926585 1.0 
230.115797985924 0.15683893140836883 
231.076356882963 0.09614909025200838 
232.09650868628 0.12260130357248998 
233.128550529731 0.11582385345404782 
245.091265407779 0.0608605331808977 
246.099670450679 0.14582197024336538 
259.107906598696 0.07928202622510835 
261.12335551987 0.18897989419476782 
273.123267211881 0.07117218965944619 
311.139260547714 0.06963094669036742 
END IONS

BEGIN IONS
TITLE=Isomitraphylline.mgf
PEPMASS=369.1804187
CHARGE=1+
RETENTION_TIME=211.505
PRECURSOR_MZ=369.1804187
SMILES=C[C@H]1[C@H]2CN3CC[C@]4(C5=CC=CC=C5NC4=O)[C@@H]3C[C@@H]2C(C(OC)=O)=CO1
INCHI=InChI=1S/C21H24N2O4/c1-12-14-10-23-8-7-21(16-5-3-4-6-17(16)22-20(21)25)18(23)9-13(14)15(11-27-12)19(24)26-2/h3-6,11-14,18H,7-10H2,1-2H3,(H,22,25)/t12-,13-,14+,18-,21-/m0/s1
COMPOUND_NAME=Isomitraphylline.mgf
IONMODE=positive
SKELETON=Ajmalicinespiro
104.049146003289 0.02727106616926205 
105.069930544024 0.04017753578320589 
108.080706162417 0.08177410658080761 
109.05208848962 0.04485754440007018 
115.054237640866 0.28844843554895105 
115.06206545168 0.03004656718574245 
116.049363619626 0.04290528286017977 
117.05739809862 0.2368332249775549 
117.065455380514 0.025614577206072055 
118.065092511347 0.18099013962416027 
122.023514599172 0.03847961363425281 
124.03935154166 0.1841316187321342 
130.065140593361 0.17029142544606463 
131.073340930143 0.02762193249950982 
132.044468358799 0.5494669927659619 
132.052294892248 0.06112561659597743 
132.080924421229 0.7555338843998639 
132.088889782324 0.08731082887010723 
132.106080275639 0.026828381216267815 
140.04959067011 0.058233484773433236 
142.065313761251 0.634032550591829 
142.07351931895 0.07020699823534875 
144.044518048622 0.030568687243944976 
145.052478856914 0.02688238496228187 
158.060134310183 0.09218819334798717 
159.067966122413 0.0413760216401969 
159.091987638226 0.029029448262695687 
160.075853772303 1.0 
160.084441171148 0.10056254708316566 
178.085965251761 0.038723904316687825 
187.086774634788 0.15608624088005532 
201.102491058026 0.05470909053383281 
END IONS

BEGIN IONS
TITLE=rauniticine-allo-oxindole-A.mgf
PEPMASS=369.1808763
CHARGE=1+
RETENTION_TIME=221.079
PRECURSOR_MZ=369.1808763
SMILES=O=C(NC1=C2C=CC=C1)[C@@]32[C@]4([H])C[C@@]5([H])[C@@]([C@H](OC=C5C(OC)=O)C)([H])CN4CC3
INCHI=InChI=1S/C21H24N2O4/c1-12-14-10-23-8-7-21(16-5-3-4-6-17(16)22-20(21)25)18(23)9-13(14)15(11-27-12)19(24)26-2/h3-6,11-14,18H,7-10H2,1-2H3,(H,22,25)/t12-,13+,14+,18+,21+/m1/s1
COMPOUND_NAME=rauniticine-allo-oxindole-A.mgf
IONMODE=positive
SKELETON=Ajmalicinespiro
105.069797678601 0.03419155962399368 
106.065077819041 0.024856369379942903 
108.080680724385 0.16460963242869875 
115.054134832025 0.263925635721614 
115.060652102065 0.03386401302685377 
116.049366126655 0.03894121335382838 
117.057166837584 0.2556819078635366 
117.064748754987 0.03181463667516926 
118.065024006906 0.16584027623417347 
118.072049430615 0.025164490094102945 
124.039174944521 0.05616575208866254 
130.065056479535 0.08436299684247947 
132.04435379819 0.38159174946620456 
132.051411317827 0.04575206694146242 
132.08086513357 0.6192555173345053 
132.088433734593 0.05587260443674714 
132.096682545219 0.043055916567896105 
132.106916871353 0.04456336653520588 
140.049378978691 0.050730197437347364 
142.065125029039 0.5748506856981914 
142.07274187668 0.051659273053483806 
142.081301944541 0.035332285412052446 
142.09263652829 0.03343111920744135 
145.052026110622 0.029461049403141013 
158.05989593633 0.04415949931470003 
160.075780488359 1.0 
160.093907058537 0.05644462175278953 
160.104815820934 0.06311354982489192 
178.086039572319 0.024610501271769045 
213.101962869802 0.03072335529816884 
237.102066864708 0.04594215532452375 
265.097012889935 0.030939957875591808 
END IONS

BEGIN IONS
TITLE=rauniticine-epi-allo-oxindole-B.mgf
PEPMASS=369.183334
CHARGE=1+
RETENTION_TIME=183.96
PRECURSOR_MZ=369.183334
SMILES=O=C(NC1=C2C=CC=C1)[C@]32[C@]4([H])C[C@@]5([H])[C@@]([C@H](OC=C5C(OC)=O)C)([H])CN4CC3
INCHI=InChI=1S/C21H24N2O4/c1-12-14-10-23-8-7-21(16-5-3-4-6-17(16)22-20(21)25)18(23)9-13(14)15(11-27-12)19(24)26-2/h3-6,11-14,18H,7-10H2,1-2H3,(H,22,25)/t12-,13+,14+,18+,21-/m1/s1
COMPOUND_NAME=rauniticine-epi-allo-oxindole-B.mgf
IONMODE=positive
SKELETON=Ajmalicinespiro
104.049525742808 0.026447794440436115 
105.069515237355 0.02822530109803672 
106.065038580747 0.027811165796758654 
108.044344021883 0.028356497028833676 
108.080719168239 0.11690999394826529 
109.052135622819 0.05882452323547619 
115.054198569692 0.22979091048833483 
115.061334150864 0.03509441814024792 
116.049270105221 0.038291295472831596 
117.057207923297 0.17506616055515317 
117.064251290875 0.028046536039672793 
118.065041308688 0.1929106420516627 
118.072028506004 0.027212137536403884 
122.023423380648 0.02562940810710878 
124.039397037211 0.14393803480647605 
128.049069377516 0.04470675744730352 
130.065118789142 0.221410400397725 
130.072754528431 0.03452912795472139 
132.044383393314 0.49760579110852 
132.051697471344 0.07369563998133241 
132.080855539586 0.6702838014310899 
132.087391633046 0.09592401126148895 
132.106654247538 0.0459435028326827 
139.038944192149 0.07437118044832691 
140.049405456807 0.04275637128569589 
142.065140966821 0.6051064800645888 
142.072261035668 0.07818415414890037 
142.092417083573 0.03180214289572044 
144.044384605091 0.03304254078689169 
144.080875514691 0.0676292260011328 
145.052012287448 0.025105212939356632 
146.060090989238 0.03366121641252612 
154.064904125987 0.0326427212310641 
158.059973309479 0.12505594738729858 
159.067836676856 0.05166156123676962 
159.091429508355 0.03733624310524618 
160.075719294874 1.0 
160.083338941681 0.11108954420882225 
160.104674201115 0.05608362057146656 
169.075913663412 0.027272758746279983 
172.075670633409 0.038293078449592656 
173.071034118867 0.02832215308811575 
185.070839305577 0.0245447004391316 
187.086467813267 0.2035814983098073 
187.095571222092 0.03319518437018337 
237.101394180788 0.0357564910740375 
265.097004896151 0.028564620617166154 
279.0762304875 0.024974882531259218 
END IONS

BEGIN IONS
TITLE=rauvoxinineiodomethylate.mgf
PEPMASS=443.2172334
CHARGE=1+
RETENTION_TIME=184.312
PRECURSOR_MZ=443.2172334
SMILES=O=C([C@@]1(C2=C3)[C@](C4)([H])[N+](CC1)(C)C[C@]5([H])[C@@]4([H])C(C(OC)=O)=CO[C@H]5C)NC2=CC(OC)=C3OC
INCHI=InChI=1S/C24H30N2O6/c1-13-15-11-26(2)7-6-24(21(26)8-14(15)16(12-32-13)22(27)31-5)17-9-19(29-3)20(30-4)10-18(17)25-23(24)28/h9-10,12-15,21H,6-8,11H2,1-5H3/p+1/t13-,14-,15-,21+,24-,26?/m0/s1
COMPOUND_NAME=rauvoxinineiodomethylate.mgf
IONMODE=positive
SKELETON=Ajmalicinespiro
106.065356992164 0.028403588188878275 
107.049016266024 0.03334043297953759 
108.080527045303 0.0587890381660368 
109.028257458118 0.03765937123634702 
109.064596718562 0.033219488083866794 
112.111823609362 0.06474992287292425 
120.080883232177 0.05083708833423315 
122.059877793201 0.22869012269137898 
122.067180934057 0.03546280695092938 
122.09638074213 0.24174973895451285 
122.103641656616 0.045139140211090875 
123.067731935243 0.4182134106186185 
123.075239133523 0.07293529334986622 
124.075680513828 0.14408168350607822 
124.112090825493 0.029866232727984672 
134.09628547246 0.036878348353336934 
136.039006921077 0.040208384009777345 
136.075438296038 0.03362767571624355 
136.11241576889 0.02943703167549673 
138.054838602022 0.1233173319371355 
139.0389881625 0.24933718919271683 
139.046767275359 0.044640484002064634 
146.059961905136 0.10660430250425683 
147.06780827736 0.053392330602243805 
148.075576998083 0.07138707854502738 
150.05480570646 0.09203599906260938 
150.091110437053 0.041225200678718266 
151.063003148912 0.0668992097441161 
152.070555469281 0.13263721203419696 
152.078365596273 0.031697726382799475 
154.085851424562 0.053816455358255265 
157.05218683005 0.033343988982693876 
158.060114592993 0.06361496828890617 
160.039399169136 0.038137336624088566 
160.07526593975 0.062443415424228585 
161.083712432138 0.039121782169406656 
162.055083520398 0.03288303604800864 
162.091139748389 0.03310386421481671 
164.070497327441 0.04132524339525254 
164.10705098721 0.053962625998943956 
165.078542140814 0.04870867768595041 
166.086066077461 0.17866279449194022 
166.09446327543 0.03540562538192735 
168.101802304704 0.05014038611000694 
170.059862047291 0.028674945714404373 
174.055022019477 0.12411022052410815 
175.062737773032 0.10379798935646356 
176.070546088313 0.10444515226664611 
178.049817743291 0.02822997810777619 
178.086271742721 0.08206676831619729 
180.101982279538 0.08005831251891096 
182.081366354439 0.03718133168795572 
184.075644477166 0.03613726468825829 
186.054653446343 0.04460195754451122 
187.062698382988 0.057284800626509175 
188.07013296652 0.07747996920849821 
189.078595165665 0.08018008430582665 
190.049933469364 0.0746722470083594 
190.086066530441 0.3931942030103291 
190.094687481171 0.06330245531079245 
192.065508741591 0.1832300151881011 
192.101456658293 0.19701651705991588 
192.11081118915 0.039023370987167245 
193.084548757961 0.027586037477825967 
194.117316228642 0.03778092054131342 
196.132987112537 0.026930461041927464 
199.063045846646 0.030244919253884537 
200.070896138592 0.03947463854099304 
201.078198341165 0.028605134586747197 
202.049513967454 0.040644634032025534 
202.086126543221 0.06758278553333373 
203.0577664066 0.11790078639953012 
203.081214822841 0.0617283584391853 
203.092426302058 0.04099975230342978 
204.065369097717 0.39173138419369574 
204.074538529887 0.06970181485942108 
204.101661874106 0.07954089366549395 
205.072942503242 0.14400055175523427 
205.08178130513 0.03182932074777667 
206.081152467136 0.06670605833180068 
208.096550675096 0.03577428538797886 
210.112349301993 0.0751773181135904 
212.069644528699 0.02688867893184933 
213.077999417204 0.04942766518543129 
214.08592749063 0.08033359685084217 
215.08160372192 0.04253335746026473 
215.093091397698 0.06219271534769479 
216.065415334488 0.07022850379405884 
216.088606239086 0.06434352251220685 
216.100836716475 0.04315189435963762 
217.072896407363 0.040886323589612764 
217.097085566926 0.06523378403232219 
218.080928637003 0.8584844232971233 
218.090477623212 0.1439358095079886 
218.116159767197 0.06576792611226143 
219.088639549599 0.27306807799327215 
219.098063720455 0.06245201805960143 
220.096427799123 0.1437387275812356 
220.105194510476 0.0292429977514491 
222.112073767715 0.03787955420550213 
224.1280400306 0.20755040699364594 
224.137291312713 0.04369122768506049 
226.08601530579 0.04616782258399436 
228.065618563464 0.05905887169021021 
228.08963093908 0.03692485449680516 
228.10123931212 0.06014899616144477 
229.072809020249 0.02760719551120419 
229.097094470284 0.06452580938933156 
230.081382129412 0.10624143444495204 
230.104895384609 0.49248307653972345 
230.115688060765 0.12480514289273999 
230.127968216701 0.03290988961928889 
231.076150013062 0.0744790585157191 
231.088382119045 0.05881009979057033 
232.096741519671 0.48033889933730045 
232.120722450675 0.03267317994933344 
232.131915616758 0.038417589719554085 
233.092257468678 0.051666834764139476 
233.12852458663 0.04786291255569465 
238.143330722631 0.040574403896697184 
240.065733355264 0.03492090025095964 
241.073171788751 0.04299649071805308 
241.096283058247 0.027563392523419935 
242.080912521209 0.0661957218204363 
243.076441761498 0.043657150866493036 
243.087815991047 0.03176883161379507 
244.096456870653 0.12540228444465537 
244.107079020114 0.02778152495060901 
245.091960351626 0.140043413644373 
245.103500974126 0.08348957746228189 
246.099220737165 0.06862500222481949 
246.11195683821 0.340170784560346 
246.122382031657 0.06552653319727325 
247.107337229655 0.08547066797980457 
254.08078946677 0.04477686543698421 
255.11235373307 0.026917831483272325 
256.060299331831 0.07528681631296981 
256.096476853385 0.06533560660445083 
257.068178341565 0.02712796568438414 
258.112381989948 0.04833082917539291 
259.107638334068 0.17126441683031451 
259.118560277283 0.030712494734593865 
261.122995760434 0.3061697952572781 
261.132293026111 0.0711383066453875 
269.068053926559 0.04223686318250046 
270.075748997823 0.05028548142127402 
270.112332750397 0.04829601075032779 
271.108695063695 0.029244562541159164 
272.091520550545 0.07061895961507657 
273.123082068234 0.03903453216495702 
282.075978849629 0.03391507789834651 
282.135657286358 0.030683112285156598 
283.107173352467 0.06075366501931144 
284.054836823815 0.04492459345131798 
285.062607917041 0.03230817977134789 
285.122987588756 0.03707020195428144 
287.139044750032 0.03316611095619776 
289.154547344623 0.0682462637864648 
295.107561567188 0.028586638920695566 
297.123171466317 0.03332798140644189 
298.070780770031 0.10379813767776308 
298.107234405194 0.04428262178661905 
299.138350595831 0.06973515007149086 
300.086865506917 0.10887869839160383 
311.138636852803 0.04640943798093181 
313.154169019489 0.04782801996997977 
315.170778307399 0.030184556193007542 
325.155151393115 0.036602622765539626 
326.102246621411 0.11406708869020427 
326.113225023122 0.03140553713075413 
327.133704555708 0.03788786019827592 
337.154308679576 0.027097986241716256 
341.112625797222 0.031835290680082826 
355.128904197672 0.07577445966550582 
355.165382544695 0.037414900654393575 
383.196118836036 0.04215951362479458 
385.175475179079 0.5427106014132054 
385.187463011747 0.10715375875837274 
385.212906371233 0.02962984194882322 
399.191568217979 0.22012401143853863 
399.203461068549 0.05309246201491519 
411.191435484158 0.04083589434777192 
413.170114028413 0.26680565608443635 
413.182485089619 0.07047582956102828 
415.222037313382 0.03279872651332222 
427.186259172184 1.0 
427.224454253235 0.0584584299893802 
443.217431939521 0.6114386127805498 
443.257123573167 0.03506833162269435 
END IONS

BEGIN IONS
TITLE=UncarineA.mgf
PEPMASS=369.1803866
CHARGE=1+
RETENTION_TIME=217.689
PRECURSOR_MZ=369.1803866
SMILES=C[C@@H]1[C@H]2CN3CC[C@]4(C5=CC=CC=C5NC4=O)[C@@H]3C[C@@H]2C(C(OC)=O)=CO1
INCHI=InChI=1S/C21H24N2O4/c1-12-14-10-23-8-7-21(16-5-3-4-6-17(16)22-20(21)25)18(23)9-13(14)15(11-27-12)19(24)26-2/h3-6,11-14,18H,7-10H2,1-2H3,(H,22,25)/t12-,13+,14-,18+,21+/m1/s1
COMPOUND_NAME=UncarineA.mgf
IONMODE=positive
SKELETON=Ajmalicinespiro
104.049343555178 0.04215908946798112 
105.069884669398 0.051510421828419466 
108.080744787935 0.07846654902371536 
109.051885596997 0.06084885166607876 
115.054229003323 0.3793070213302609 
115.061554549298 0.03796493820457191 
116.049164779622 0.05409862938290056 
117.057323814624 0.33491684753839873 
117.065438757585 0.03233507950293113 
118.065166740885 0.22475485441567356 
118.072706143044 0.025902920610735066 
122.023534597596 0.045555834763163314 
124.039256117654 0.21925063913752718 
128.049405205567 0.030733860926116498 
130.065101298906 0.23480985100803603 
130.072912960166 0.026676987432369785 
131.07283153916 0.0249613370526918 
132.044440141177 0.6326454023196358 
132.052324251561 0.05662976898988793 
132.080855716361 0.840588790915722 
132.088363709339 0.08178165662380386 
132.107400333796 0.033305107792663456 
139.038717279426 0.025624067361784013 
140.04960146164 0.07410533662808748 
142.065177895035 0.7651797217620515 
142.073087193174 0.07174882963738134 
144.044487148157 0.0325251791769158 
145.052320110214 0.02724183329489662 
158.060057177114 0.11088818862577093 
159.06771012256 0.05862644260960686 
159.091533194646 0.04257587336270179 
160.075644162762 1.0 
160.083746630039 0.08358429922204409 
169.076161042923 0.02684703112809946 
178.085901413326 0.04058333775629497 
185.071379151618 0.026076952017363687 
187.086471483116 0.1792290989229423 
199.0864697495 0.02611580988811394 
201.102294280508 0.08349289656704591 
279.076091279678 0.02593118216135809 
281.091909494401 0.02592677642187257 
END IONS

BEGIN IONS
TITLE=UncarineB.mgf
PEPMASS=369.1803976
CHARGE=1+
RETENTION_TIME=216.915
PRECURSOR_MZ=369.1803976
SMILES=C[C@@H]1[C@H]2CN3CC[C@@]4(C5=CC=CC=C5NC4=O)[C@@H]3C[C@@H]2C(C(OC)=O)=CO1
INCHI=InChI=1S/C21H24N2O4/c1-12-14-10-23-8-7-21(16-5-3-4-6-17(16)22-20(21)25)18(23)9-13(14)15(11-27-12)19(24)26-2/h3-6,11-14,18H,7-10H2,1-2H3,(H,22,25)/t12-,13+,14-,18+,21-/m1/s1
COMPOUND_NAME=UncarineB.mgf
IONMODE=positive
SKELETON=Ajmalicinespiro
104.049595813532 0.031536675515567 
105.069811728866 0.05731560434487013 
108.08084624694 0.09054173599242597 
115.054294723413 0.3554896990134045 
115.061632036343 0.033380453759542794 
116.049606534425 0.05268199138219618 
117.057395815822 0.3490662256404396 
117.066067441094 0.0323947325332639 
118.065060936801 0.22123670891463756 
122.023759153926 0.03572825887309005 
124.039359959951 0.17169392340147485 
130.065098985626 0.12229681305378323 
132.04445484853 0.5169136958046396 
132.052296550184 0.05247377444392081 
132.080906457051 0.8072601373464878 
132.08870829108 0.08303913903254663 
132.107327913321 0.029084041034458562 
140.04943552588 0.0695461062473901 
142.065159818194 0.6863961482550615 
142.07342460977 0.0639798501221501 
145.052073412647 0.049293577063466286 
158.060208080117 0.06391412565949743 
160.075773121639 1.0 
160.084456614564 0.08993997753711189 
178.08624700584 0.043483135770097825 
187.086632354535 0.06736235920911307 
201.102389522855 0.0930825961699587 
END IONS

BEGIN IONS
TITLE=UncarineC.mgf
PEPMASS=369.1803434
CHARGE=1+
RETENTION_TIME=207.052
PRECURSOR_MZ=369.1803434
SMILES=C[C@H]1[C@@H]2CN3CC[C@@]4(C5=CC=CC=C5NC4=O)[C@@H]3C[C@@H]2C(C(OC)=O)=CO1
INCHI=InChI=1S/C21H24N2O4/c1-12-14-10-23-8-7-21(16-5-3-4-6-17(16)22-20(21)25)18(23)9-13(14)15(11-27-12)19(24)26-2/h3-6,11-14,18H,7-10H2,1-2H3,(H,22,25)/t12-,13-,14-,18-,21+/m0/s1
COMPOUND_NAME=UncarineC.mgf
IONMODE=positive
SKELETON=Ajmalicinespiro
104.049501992851 0.033412790889145734 
105.0697247138 0.04389199836275615 
108.080522494723 0.10039046070222706 
115.0541433096 0.2903302245564622 
115.061706664827 0.03212071693716214 
116.049441014076 0.03985747823673229 
117.057340163083 0.273677290455527 
118.06510635817 0.1740083148150181 
124.039223134579 0.0608403577471901 
130.065141647787 0.16009469040565696 
132.044368930717 0.4033889693048143 
132.052661987628 0.0425114756052235 
132.080839739047 0.6811307646587429 
132.088579932724 0.06641347934704707 
132.105665795083 0.0259708495319584 
140.04941156336 0.05707187406395601 
142.065140759136 0.5714943927534709 
142.073198204215 0.05299096536225588 
144.080790698589 0.04817790755845227 
145.052101270202 0.03462645277947235 
154.065184452215 0.03295956917276843 
158.05991330683 0.11335953341686832 
160.07575781523 1.0 
160.083984528954 0.07279662890864524 
160.105375488205 0.032399330674641694 
168.080484082831 0.027444008299132606 
172.075687555678 0.04252696982860692 
187.086940815329 0.03525917538739479 
201.102046896254 0.11004787840484775 
213.102202988492 0.08952214121385008 
237.102109626721 0.03085106569832998 
265.09693992464 0.06728949889987879 
END IONS

BEGIN IONS
TITLE=UncarineE.mgf
PEPMASS=369.1806186
CHARGE=1+
RETENTION_TIME=217.757
PRECURSOR_MZ=369.1806186
SMILES=C[C@H]1[C@@H]2CN3CC[C@]4(C5=CC=CC=C5NC4=O)[C@@H]3C[C@@H]2C(C(OC)=O)=CO1
INCHI=InChI=1S/C21H24N2O4/c1-12-14-10-23-8-7-21(16-5-3-4-6-17(16)22-20(21)25)18(23)9-13(14)15(11-27-12)19(24)26-2/h3-6,11-14,18H,7-10H2,1-2H3,(H,22,25)/t12-,13-,14-,18-,21-/m0/s1
COMPOUND_NAME=UncarineE.mgf
IONMODE=positive
SKELETON=Ajmalicinespiro
104.050009179641 0.03355547551298734 
105.071157256807 0.037396765131052 
108.08102715166 0.08803087665453602 
115.054074019232 0.2575671495678904 
115.062604005828 0.04507959090898157 
116.050623266902 0.026698673003793135 
117.056944979712 0.2949998917621364 
117.064676539043 0.04805392530625302 
118.065153623801 0.21970163631596795 
122.024160310412 0.03411747656650255 
124.038634739203 0.06715311568703382 
127.054766404335 0.029915839047891645 
130.065090656039 0.0733310322765309 
132.044430117534 0.29609730343402657 
132.053319464305 0.029780716101705105 
132.080822404272 0.6097339513314459 
132.086978415828 0.048668277406428366 
132.090085177194 0.06926339323296878 
135.046866928506 0.026349906554644486 
140.048708726119 0.05707209363296781 
142.064997300282 0.6110748981962761 
142.073125304389 0.08182445742764298 
143.071196162113 0.026225697593030443 
144.079900881784 0.03974892423590082 
145.051094330998 0.03325415332735219 
158.060503909223 0.07286308391320766 
158.094042540935 0.027912247956108343 
160.075847230193 1.0 
160.084231311874 0.12268557381702028 
160.105239004112 0.02730306722052382 
168.082263786288 0.03136729677138479 
172.078651576553 0.026838756852058082 
185.071197572423 0.04105763425704328 
186.077730055097 0.02855694273735962 
187.085631651792 0.04802521220634466 
199.088661218964 0.029178600893323168 
201.101593274702 0.17046958395770545 
201.110443309241 0.030908151754295236 
213.101790603556 0.17570228333786328 
213.111752773277 0.025314912050722668 
237.099836250153 0.03736662689927384 
239.117076785303 0.025950364521071505 
265.096916860712 0.1335595103800111 
265.1328803366 0.03560310738879762 
337.15513861293 0.044173808361254695 
END IONS

BEGIN IONS
TITLE=UncarineF.mgf
PEPMASS=369.1804785
CHARGE=1+
RETENTION_TIME=204.006
PRECURSOR_MZ=369.1804785
SMILES=C[C@H]1[C@@H]2CN3CC[C@@]4(C5=CC=CC=C5NC4=O)[C@H]3C[C@@H]2C(C(OC)=O)=CO1
INCHI=InChI=1S/C21H24N2O4/c1-12-14-10-23-8-7-21(16-5-3-4-6-17(16)22-20(21)25)18(23)9-13(14)15(11-27-12)19(24)26-2/h3-6,11-14,18H,7-10H2,1-2H3,(H,22,25)/t12-,13-,14-,18+,21+/m0/s1
COMPOUND_NAME=UncarineF.mgf
IONMODE=positive
SKELETON=Ajmalicinespiro
104.049211039013 0.02933750515598935 
105.069903533616 0.038068922497800896 
108.080638555359 0.10720927139710265 
115.054113521096 0.25509026947512536 
115.061646528458 0.030670940202675107 
116.049404548387 0.04467290943618623 
117.057260208136 0.253204071864534 
117.065042439717 0.02858166918362208 
118.065031946974 0.18190249424993266 
124.03936039011 0.07293569713364122 
130.065069795089 0.18970790265492102 
131.06864593796 0.0328057797037306 
132.044340154125 0.4248886272545428 
132.052276434308 0.04155585649506138 
132.080827202737 0.6726211733445308 
132.088643346176 0.07298534990180836 
140.049287830621 0.053894417489655955 
142.065119349619 0.6077914003160765 
142.073399490006 0.06237538707893878 
144.080654149793 0.04568945788358367 
145.052327115553 0.03158170563840768 
154.064898901124 0.03283268198532762 
158.059922764516 0.12406717941897821 
160.075678463222 1.0 
160.084331504822 0.10271831184638763 
172.075657725697 0.03358875761415579 
173.10707984535 0.02655205912156118 
187.086551710819 0.0465352089095496 
201.101974813427 0.09188280191482136 
213.10230063713 0.09871101953908998 
237.101836207726 0.036380998415567 
265.097204914919 0.07460836421301205 
END IONS

BEGIN IONS
TITLE=Uncarine_D.mgf
PEPMASS=369.1814386
CHARGE=1+
RETENTION_TIME=220.895
PRECURSOR_MZ=369.1814386
SMILES=C[C@H]1[C@@H]2CN3CC[C@]4(C5=CC=CC=C5NC4=O)[C@H]3C[C@@H]2C(C(OC)=O)=CO1
INCHI=InChI=1S/C21H24N2O4/c1-12-14-10-23-8-7-21(16-5-3-4-6-17(16)22-20(21)25)18(23)9-13(14)15(11-27-12)19(24)26-2/h3-6,11-14,18H,7-10H2,1-2H3,(H,22,25)/t12-,13-,14-,18+,21-/m0/s1
COMPOUND_NAME=Uncarine_D.mgf
IONMODE=positive
SKELETON=Ajmalicinespiro
103.054329341387 0.04921484712892857 
104.049563099698 0.025386385237235822 
105.070063486007 0.03573765764996102 
106.065379705508 0.032226562082848326 
108.080787469704 0.1526091936224517 
110.09645578222 0.0555187364509136 
115.054282013242 0.26923196035924435 
115.061774253091 0.029838051708119307 
116.049585507903 0.035396380858811846 
117.057352644735 0.25203276342627695 
117.066715788358 0.027438248203244302 
118.065205850099 0.17572948815155756 
124.039462456246 0.047317227496502606 
128.049444244864 0.027064507000138828 
130.065271262167 0.5811279247338239 
130.073083183109 0.049817788148353824 
132.044561730942 0.3780184427761344 
132.052552584714 0.04232547708802768 
132.08100302314 0.6508818252688459 
132.088796461321 0.061653869565681696 
140.049496793906 0.044558366527482615 
142.065272662672 0.5448876560480985 
142.073197578471 0.055517134588481544 
144.080742444488 0.06746844331008853 
145.052446633973 0.04224824062109546 
154.065237999857 0.04516122745378627 
158.060199622792 0.3142301449151547 
158.068537575139 0.03248045727832894 
158.083941676869 0.025915416324046092 
159.068228686366 0.03465413120321227 
160.075874072446 1.0 
160.084302372095 0.0913473531893081 
172.076146421092 0.05312966542433335 
173.071256369202 0.035956098290278835 
173.10758993462 0.1426098610651317 
185.071082167323 0.03128789739537168 
186.078843199729 0.07454976986576393 
187.086957510303 0.06128546790401641 
199.086726345929 0.09322711205561665 
201.102487657893 0.4135223886972587 
201.111763088178 0.04182841917536122 
213.102393778354 0.09115822663149688 
237.102116589853 0.058244652449247654 
239.11821314145 0.027602359009408273 
265.097313148964 0.055849147275232006 
END IONS

BEGIN IONS
TITLE=19-20-dihydro-gelsemine.mgf
PEPMASS=325.1902791
CHARGE=1+
RETENTION_TIME=118.467
PRECURSOR_MZ=325.1902791
SMILES=CC[C@]12C3CC4[C@]5(C1[C@@H](C3CO4)C(N2)C)C6=CC=CC=C6NC5=O
INCHI=InChI=1S/C20H24N2O2/c1-3-19-13-8-15-20(12-6-4-5-7-14(12)21-18(20)23)17(19)16(10(2)22-19)11(13)9-24-15/h4-7,10-11,13,15-17,22H,3,8-9H2,1-2H3,(H,21,23)/t10?,11?,13?,15?,16-,17?,19+,20+/m1/s1
COMPOUND_NAME=19-20-dihydro-gelsemine.mgf
IONMODE=positive
SKELETON=Gelsemium
103.054383429129 0.052568504592341796 
104.049469594973 0.06153709617873718 
105.069787784861 0.4990974237944217 
105.076707405154 0.059757200937946564 
106.065337363294 0.07443463539765338 
107.071828120473 0.03217634509911569 
107.085302140065 0.08964845579105123 
108.080864559593 0.14311987197529907 
109.089481479428 0.0611751885322643 
110.096587696308 0.038503150180579745 
111.104215419637 0.04759477695132281 
115.053667659285 0.06172140386525004 
117.06941942514 0.07430453130147696 
118.065411975166 0.025094296445911088 
119.072799861823 0.028786156903527673 
119.08553040859 0.1795866337712877 
119.093400435152 0.035609643337279714 
120.080648820737 0.06016015471113305 
121.088634879149 0.05567701987060796 
122.096304408183 0.13887021761670865 
124.111286002086 0.026141042334268203 
128.049610558207 0.07921164605803681 
128.062674696415 0.041115319492885556 
129.070350279765 0.046681597378001295 
130.065235113436 0.3399501615917126 
130.073086332066 0.04270814655969735 
131.085354154171 0.04517860224910072 
132.044302906702 0.5008904506998868 
132.052725016345 0.07785441498691864 
132.080756632468 0.056159589198186755 
133.063795300387 0.034360406663661955 
133.101040541247 0.19674009649322638 
133.107917430482 0.03661678268023726 
134.060656186498 0.07427759719947258 
134.096758568316 0.07014034885853844 
135.104014597313 0.031884662189861177 
136.1122448514 0.15740126677995847 
136.121328397639 0.03297342940517688 
143.086055596762 0.0387792505250731 
144.08003716916 0.06308980588097346 
146.059875365217 0.21803888262691085 
146.069920543819 0.040262122474315216 
148.112021577362 0.05690272790339429 
149.119163029265 0.04131252665353845 
150.126963980721 0.07946481113750918 
151.054098813947 0.07442622494051408 
152.062925600815 0.025047571970681047 
153.069783289993 0.04118923347970797 
154.065954572529 0.0488473416892687 
155.073399299753 0.026960004148470884 
156.08058535699 0.05529924587094283 
158.059825395538 0.33536852636665415 
158.068930930878 0.03383617203461084 
159.070353318678 0.03139773284002305 
161.096213014056 0.050114869817217036 
164.143914419293 0.028001946272658253 
165.069761300566 0.03811337966996438 
166.065746404457 0.12213490424849342 
166.074566857201 0.03562388435673031 
167.07228224732 0.04046714671629697 
168.080544480756 0.05426594639442929 
169.088798054863 0.027770065325516943 
170.060601143774 0.025688002482890784 
170.097294683394 0.04996838338888277 
172.07546707093 0.09245135672799164 
178.064916344237 0.7668193018443411 
178.073894405545 0.3063431616146736 
178.085025799867 0.03173673102042322 
178.094905176754 0.03596412088664794 
178.122559673795 0.08829419159898529 
179.085775918227 0.028547800420368065 
180.09148929331 0.029351979437206265 
183.067715378705 0.15313894513776252 
183.076067992283 0.026163281027685628 
184.075473080694 0.20808951822270016 
184.084411431786 0.03745026930232162 
186.091079052678 0.0318667577197548 
190.066021171215 0.03710830424286924 
191.071915252402 0.1042158835352918 
192.08104419288 0.09542713641735681 
193.086872633765 0.03742369638559315 
194.096566104648 0.03540900491650558 
195.068360227982 0.02677412272611295 
196.075582497554 1.0 
196.08455943276 0.17351918551688322 
196.105077544462 0.055109907389515364 
198.091143844282 0.10175290954088967 
204.08013389799 0.072564211647348 
205.087840687977 0.04380093841094474 
206.097633836457 0.05932305623628947 
208.075688461604 0.0815627042148 
209.083550813617 0.38131180944277626 
209.094151903004 0.05695442899574757 
211.097504857617 0.036787081537834034 
212.107037796736 0.601338139849391 
212.117600235706 0.10189769323863744 
212.131670949195 0.026165319144599755 
212.142293707786 0.03378021411579136 
216.081165564984 0.02915624281660534 
218.095774303097 0.047917083212185775 
220.07524883902 0.03640234182213328 
220.111788879176 0.3197093387290974 
220.122367905454 0.058191565962621976 
222.090960804403 0.12789758952686536 
231.104621405305 0.03573520681855884 
234.091354896155 0.07934933504500756 
236.106221242826 0.06654216954191645 
238.122528406404 0.35075605107882174 
238.132126601506 0.07310093296736667 
238.159325117142 0.02714570497819086 
240.138602671563 0.030186214228790753 
242.096279616393 0.028672512536353948 
325.191090163207 0.30858457424124647 
325.203621989558 0.060150609100269425 
END IONS

BEGIN IONS
TITLE=Gelsemine.mgf
PEPMASS=323.1755106
CHARGE=1+
RETENTION_TIME=422.781
PRECURSOR_MZ=323.1755106
SMILES=[H][C@@]1(OC[C@H]2[C@@H]3[C@]4([H])[C@@](C=C)(CN3C)C2([H])C1)[C@@]4(C5=C(N6)C=CC=C5)C6=O
INCHI=InChI=1S/C20H22N2O2/c1-3-19-10-22(2)16-11-9-24-15(8-13(11)19)20(17(16)19)12-6-4-5-7-14(12)21-18(20)23/h3-7,11,13,15-17H,1,8-10H2,2H3,(H,21,23)/t11-,13?,15+,16-,17-,19+,20-/m1/s1
COMPOUND_NAME=Gelsemine.mgf
IONMODE=positive
SKELETON=Gelsemium
101.037480744471 0.03760855548098829 
103.054009811284 0.13898404911093293 
104.050851698688 0.16608256909457955 
105.06993835073 0.12828808704131492 
106.067149346267 0.06566195985438059 
107.075421013771 0.053004931875324145 
108.080467125205 0.06531411040884788 
109.087303811995 0.04340878390182169 
115.054022534142 0.46020967163030485 
116.060280820535 0.16403916913623437 
117.06370672056 0.07212930053039553 
117.069715180115 0.3188544291362253 
118.066222905172 0.05309838294929683 
118.071644819786 0.06311194118231603 
119.079722435757 0.055642570855153325 
120.079984600442 0.10164057795825171 
121.085590619156 0.0340474774108857 
122.095609226888 0.028892921268320968 
127.053948249087 0.05592190312578981 
128.052705994951 0.24606627471212575 
129.068089948563 0.12022239041449259 
130.065648661405 0.3294063009483049 
131.084153551601 0.29723975611515785 
132.044155569901 0.3245517910434893 
132.081168863258 0.11822992458119441 
133.048992775261 0.03868023669734512 
134.058973823131 0.05270735860845701 
134.095226705873 0.11664395617260338 
135.101034548286 0.04639354631738335 
139.052438122665 0.047007228788829604 
140.05290425367 0.07430358644303749 
141.067497555131 0.047780588040712814 
142.068368098686 0.02611123740656594 
143.073968632086 0.033320628161829395 
144.078950011543 0.09054158969828394 
146.060844517469 0.2541127320792421 
146.091921282933 0.061553583833939766 
147.067214307914 0.03337335462357072 
147.099053666043 0.05244792354390793 
148.110681061529 0.08438312081665211 
151.053449918812 0.13866852978931649 
152.060670943856 0.11711534072320556 
153.067396736181 0.038091783066456664 
154.066496162699 0.0638196419228914 
158.06020573725 0.1862542522620877 
158.091617832413 0.04191463304515282 
159.079290976963 0.1345359685674057 
160.079499315822 0.0337267625816364 
160.110556480443 0.05240091440934338 
162.127661122333 0.054103974586026934 
165.068533449984 0.155187771090925 
166.06685637134 0.20381071200234863 
167.072600486218 0.4779340665124803 
168.077562453489 0.11719810584043121 
169.083313207515 0.03560370210547379 
172.077769501273 0.03370466465834206 
177.058500519745 0.219303262007408 
178.065293263583 0.31226770522368585 
179.07137632835 0.08305059789175828 
180.080674881727 0.17797413317833022 
181.084696916369 0.048353001392577546 
183.069428800154 0.05206683646220869 
184.074545340174 0.07079203585399398 
189.068741761156 0.0657983135699853 
190.066340277153 0.12766607814497236 
190.123028688455 0.05091767638748413 
191.075303159715 0.0909484274400849 
191.126426247573 0.0344066253839344 
192.082216080107 0.09152079541633712 
193.088393475411 0.07023135209796412 
194.090709662919 0.04108734487779667 
195.067862615527 0.7194101442626848 
196.074319815959 0.4111917586997527 
197.08044495539 0.06224513085646015 
201.066105613985 0.03108848834323202 
202.069337841948 0.07479595721442743 
203.073687951701 0.1986097592959883 
204.079294927438 0.14640464065464304 
205.085392076295 0.03797655169847723 
208.079092639378 0.16215780549017683 
209.082393866599 0.04526162897541413 
210.09032728274 0.21896278609890885 
211.095111309907 0.0464300509976509 
214.06163501846 0.029654278670694204 
215.076232773244 0.03367108670508166 
216.079144265176 0.12496976849816249 
217.087629183452 0.17270752196066205 
218.096053851645 0.2681964146913528 
219.097418366129 0.07271364766835145 
220.081910129619 0.050953296243307654 
220.101905359274 0.026023299469513712 
222.091597809792 0.05191981947766317 
228.081709635914 0.039424963937731955 
230.095716622318 0.03184916511141755 
233.087593667665 0.025590529565160967 
236.10724410267 0.819160714520695 
237.111162045558 0.19718689352657898 
238.121455286748 0.19106638134481516 
239.124900854933 0.051100971174234636 
248.105888699567 0.045436688088493334 
251.1185636877 0.025603121297633615 
262.122100234848 0.04264148229420912 
264.135442962274 0.03304438143284386 
274.12137438392 0.03466932749258449 
293.158128088442 0.025573922090980823 
323.175510615247 1.0 
324.178507139209 0.2969842914167037 
325.182469834143 0.03524478101048766 
327.208092111671 0.04804521861289474 
END IONS

BEGIN IONS
TITLE=Gelsemicine.mgf
PEPMASS=359.1964112
CHARGE=1+
RETENTION_TIME=976.73
PRECURSOR_MZ=359.1964112
SMILES=O=C1N(OC)C2=C(C=CC(OC)=C2)[C@@]1(CC3N[C@@H]4CC)[C@H]5OCC3[C@H]4C5
INCHI=InChI=1S/C20H26N2O4/c1-4-15-12-8-18-20(9-16(21-15)13(12)10-26-18)14-6-5-11(24-2)7-17(14)22(25-3)19(20)23/h5-7,12-13,15-16,18,21H,4,8-10H2,1-3H3/t12-,13?,15-,16?,18+,20+/m1/s1
COMPOUND_NAME=Gelsemicine.mgf
IONMODE=positive
SKELETON=Gelsedan
106.060435276936 0.04742787812446302 
108.075914321824 0.16625111713787233 
109.074553459648 0.03685078038274075 
110.090868535241 0.08109770899228937 
117.053368075862 0.03864051480622488 
119.032366990764 0.03660267349389813 
120.073985306958 0.029490889700875253 
122.090532851038 0.3536440287332861 
123.09363160724 0.044150725196357155 
124.07002629359 0.13960209435507848 
124.10095849914 0.07685044853710625 
132.039556054353 0.06657032536328006 
133.046969979552 0.05126487736712764 
136.104223651457 0.03019987562607452 
146.055120655678 0.032474195592544476 
147.064757304157 0.032784916752204046 
148.032497543293 0.06819727813846418 
148.064598822489 0.0596709364138306 
148.102847545525 0.03501757872696742 
150.084480545487 0.06361576275855549 
150.114862816417 0.03261731197762724 
152.099945441533 0.6186202676766897 
152.207895157842 0.04229756279837696 
153.105624362822 0.14601594313711408 
158.053061093431 0.15624733500680513 
159.060053583794 0.03384008131581795 
160.068384074182 0.07599965088020917 
162.047640927353 0.719196769914602 
162.16061009196 0.04893754846991887 
163.053524003911 0.15056672870210172 
166.114801057322 0.10645430667446125 
174.0811027099 0.0344297846458207 
175.057144420675 0.05141516252708179 
176.062333029438 0.33500094098693617 
177.068474753852 0.10635875331504697 
188.064218300483 0.04544571414544294 
202.077633830725 0.043565694980221094 
203.078302425225 0.038544025005705015 
214.077633581321 0.04717594819207771 
226.079031813267 0.040432022103646756 
240.091110556235 0.02914675668623495 
245.117195644842 0.04232761528453718 
246.123864939931 0.02810054740892201 
252.091272611557 0.03877294394354442 
271.12651530932 0.040457251463530165 
281.116236631028 0.02710713795413984 
299.126502286799 1.0 
299.275807241918 0.07038245891251003 
300.129313263658 0.22243112839334891 
301.133034624558 0.02861452629262966 
313.141132341507 0.0749945222741154 
328.163480903893 0.3358212361204427 
329.167567944106 0.08905350351710914 
END IONS

BEGIN IONS
TITLE=6-7-dihydroleuconoxine.mgf
PEPMASS=309.159373
CHARGE=1+
RETENTION_TIME=388.599
PRECURSOR_MZ=309.159373
SMILES=CC[C@]1(CCC2=O)CCCN3C(C=C4C5=CC=CC=C5N2C413)=O
INCHI=InChI=1S/C19H20N2O2/c1-2-18-9-5-11-20-17(23)12-14-13-6-3-4-7-15(13)21(19(14,18)20)16(22)8-10-18/h3-4,6-7,12H,2,5,8-11H2,1H3/t18-,19?/m1/s1
COMPOUND_NAME=6-7-didehydroleuconoxine.mgf
IONMODE=positive
SKELETON=Leuconoxane
103.054195635213 0.07075031944024333 
105.070059103486 0.054106297581831365 
106.065385189831 0.05006819779835639 
108.080630380818 0.04255854675240408 
110.096160818229 0.03600081566003418 
115.054140574982 0.177416033705435 
116.049220907254 0.03727180873011629 
117.057108748018 0.0893215576073866 
118.065093652658 0.04785963464496042 
124.075696142912 0.05032193032092471 
127.054289070222 0.10593500418604392 
128.049646906261 0.1302324950338116 
128.062004002242 0.14466409092614127 
129.057945513926 0.05361982261389511 
129.069845956954 0.394018705909864 
129.077394625028 0.06921054962876295 
130.065286429665 0.6778073430153722 
130.073260748984 0.12034896202871091 
132.0806923331 0.056256511513017436 
140.049587102175 0.11558644918924829 
141.06985873492 0.03663377423136811 
142.065326791911 0.19232497428116965 
143.073065719308 0.13853131711537278 
144.081197613088 0.147103169820898 
146.060077691371 0.06218106854656884 
152.062046744968 0.044384954823447904 
153.057678764944 0.060877600714460724 
153.069538238073 0.03857532444833209 
154.065307493832 0.3521446990477847 
154.072810538219 0.05209714814285703 
155.072892689557 0.16928545148219473 
156.080821244733 0.389505520071063 
156.088772102845 0.0732331821994568 
157.076394524038 0.0911500886292043 
158.059962899262 0.07706990493809524 
158.096482719336 0.0424927831645215 
165.070089740365 0.06982793723408245 
166.065352722066 0.1253268027323813 
167.06048542948 0.34405729413163727 
167.072895405848 1.0 
167.082439469733 0.10040495685062646 
168.080958586685 0.47706798151277 
168.089446342647 0.08854652095456167 
169.087442413269 0.1213424391427429 
170.060113458818 0.24260331228206833 
170.083803778809 0.09924930545191317 
170.095930919083 0.0841434731634281 
178.0651375103 0.06107873034774093 
179.060445275726 0.18430852061457031 
179.072884679158 0.11166633279408254 
179.084779336452 0.04559390346001071 
180.068106434233 0.225848841116289 
180.080854129857 0.7665264135779463 
180.08935726024 0.13064830606884584 
181.088542203165 0.21678288358967032 
181.097612005333 0.04338492529368151 
182.059989476818 0.046222600167760995 
182.096579244649 0.24814317626956045 
182.105377135655 0.045762207166475256 
183.068544593146 0.09633583485039184 
183.091951447276 0.12424417764788227 
183.102162957531 0.03937546140260006 
184.06335647276 0.03987901574894272 
184.075897522637 0.10689057146482805 
184.112105792018 0.08871515986378 
185.071305980437 0.20010774374228335 
185.079674370233 0.040659647095348424 
191.072906850451 0.0818898731257577 
192.080805767374 0.2692223216302347 
192.090131491489 0.04073798876751534 
193.076057369165 0.0958689453004973 
193.088702927629 0.6782341678551733 
193.09821116141 0.08028760396273503 
194.096545364189 0.4191692877659774 
194.105564661762 0.07271302733578457 
195.068468212461 0.03849632833269352 
195.103731115854 0.11018266155775104 
196.076105229787 0.1261767013335483 
196.099645982502 0.07126277262159679 
196.111835427617 0.09987597498110494 
197.070935628907 0.2079897172564772 
197.081148704608 0.047536483228289836 
197.107539222627 0.07483128527111119 
198.078648947387 0.2571231782328909 
198.088382495396 0.05483823673774295 
198.127525661534 0.0364497399385302 
204.081102069286 0.10600148606554172 
205.076384971306 0.09202440914528884 
205.088647089676 0.08222778942563008 
206.084151498228 0.09943494392935841 
206.095999439739 0.536241084205326 
206.105641496403 0.08412958619220046 
207.067320361957 0.03836003648921405 
207.104116312705 0.1882900908479273 
208.07594880883 0.12357616644572549 
208.11205666324 0.32673992177006206 
208.121815674153 0.06556771774012689 
209.071719135449 0.03923514712607534 
209.083262569683 0.050905494372185195 
209.107610907638 0.24173785069590484 
209.11771138573 0.05349819988140207 
210.079536892933 0.03854840447479715 
210.091624484128 0.08035600128654008 
210.128082774025 0.04415898826231691 
211.087382875932 0.08884094070662336 
211.123001780405 0.06058330865868618 
212.106620684798 0.05942962857140577 
217.088827842589 0.10238592531523026 
218.096463934704 0.07159032157915614 
219.091971768577 0.2765895992970319 
219.103166032319 0.04481075011193378 
220.075918863759 0.39754463982863153 
220.099201947088 0.04156698508267935 
220.111934969197 0.1055358734785187 
221.106943659665 0.07222332005557981 
221.119039361629 0.05017187920250476 
222.091320068391 0.2358158555691144 
222.101603405402 0.048138914405976826 
222.127787944927 0.1435698933656192 
223.086926379986 0.4825712126278858 
223.09713067776 0.10263086275602108 
223.123372899294 0.13730615105034186 
225.102338160006 0.06772834689973367 
233.084409490773 0.03821573170371589 
233.106954124383 0.09188138930368012 
234.091758996974 0.37029050107224976 
234.100977947665 0.03965517213858558 
235.099116607174 0.07642285987008499 
235.123902784464 0.08001417428787372 
236.107171182012 0.3105141132330864 
236.117093732766 0.06391551932882832 
236.143506121983 0.0394492139894475 
237.102248933646 0.502465496064161 
237.113405041128 0.11442273696240861 
238.122640249518 0.044082386452062416 
239.118448501936 0.07852466094640506 
251.08199063715 0.15559162088887787 
251.118268197631 0.18167223076634534 
251.128852351538 0.04703701516313599 
261.102130470355 0.04089340312999561 
279.113242833679 0.06609534283659743 
END IONS

BEGIN IONS
TITLE=leuconodineA.mgf
PEPMASS=327.1703613
CHARGE=1+
RETENTION_TIME=170.258
PRECURSOR_MZ=327.1703613
SMILES=CCC12CCCN3C(=O)C(O)C4c5ccccc5N(C(=O)CC1)C234
INCHI=InChI=1S/C19H22N2O3/c1-2-18-9-5-11-20-17(24)16(23)15-12-6-3-4-7-13(12)21(19(15,18)20)14(22)8-10-18/h3-4,6-7,15-16,23H,2,5,8-11H2,1H3/t15-,16+,18?,19+/m0/s1
COMPOUND_NAME=leuconodineA.mgf
IONMODE=positive
SKELETON=Leuconoxane
106.065107528423 0.15383506168710168 
107.072995222399 0.08744141602277679 
107.085523837167 0.056448991647526425 
108.08077050053 0.29142508151742674 
108.087608417148 0.04774012518595145 
109.101154448728 0.23545083081913945 
110.096281053446 0.38031560382687957 
110.103273452569 0.06285275702659314 
112.111815588152 0.05387394908493233 
115.053932909197 0.07344694297848696 
116.049536509935 0.40339943291833963 
116.056624385975 0.0673672916972933 
117.057048152806 0.12773330078480613 
117.069862893094 0.06489146819482901 
118.065112470169 0.6206999641696462 
118.072036482647 0.08202278306991055 
119.085407845477 0.0915167928371661 
120.081212558018 0.08905753581574297 
121.088811571918 0.07473728528199658 
122.096656004584 0.14403276252028102 
124.112321253146 0.16004904307779594 
128.04945801522 0.28559421966929077 
128.060708890695 0.06064334591666588 
129.070021915966 0.2503856146299336 
130.06511900557 0.6096903349306388 
130.072462537913 0.1057958407118237 
132.044135123398 0.046137717134416875 
134.060511015708 0.07790534942237604 
134.096614425408 0.06401863717877998 
135.067662777525 0.05979000355606146 
136.075558974341 0.094765576425875 
136.112024367629 0.29466262597381465 
137.09619657716 0.15921287411137802 
142.065200327405 0.23458182110807957 
143.072863662734 0.10695466268891296 
143.085230179052 0.0630756739770479 
144.044485873893 0.873553242691979 
144.052479198903 0.13267110117871525 
144.081005990576 0.2205676346256987 
146.060252455915 0.42687820511955965 
146.06793600463 0.07571567422880446 
154.065025120573 0.16464247645738955 
155.073208291737 0.18049592446583776 
156.08085371098 0.5555404201906966 
156.088747226294 0.07791157590168188 
157.08821888671 0.054344126946449134 
158.096446388622 0.06936554198917357 
162.091206219765 0.053558196901506094 
164.107254780113 0.10470452096345438 
166.0650217509 0.09917684594880981 
167.072865764582 0.24723079018742827 
168.080598895187 0.3847865306641743 
168.089833486844 0.07587652869058265 
169.088824313547 0.187068434177572 
169.098017263161 0.04660751286543477 
170.059784831275 0.06976201362092925 
170.096948660633 0.403569818164326 
170.106421476476 0.061265027281869805 
180.08092347437 0.22906543018228526 
181.088498342535 0.15203073138428796 
182.083848453574 0.06023165649974757 
182.096543164262 0.8592228994174084 
182.104802023197 0.16901912945277564 
183.068045752919 0.14551632798665332 
183.089715140523 0.2394144232234641 
183.102762190141 0.09843202864989699 
184.075418871058 0.21663969274909628 
184.111889038593 0.4081787615465226 
184.121600244959 0.07837586445786247 
192.080089333896 0.04766286739037688 
193.08759636322 0.07547526918845822 
194.096256098372 0.11313685981340345 
195.091957312085 0.20176816277500473 
195.103750477706 0.08359253020292029 
196.07580421523 0.12406484799523101 
196.099624983647 0.08053391273308275 
196.112002979774 0.14746559813987864 
197.085294866545 0.05165646827799859 
197.110105872924 0.16417755850979895 
198.091417974448 1.0 
198.101069669475 0.18080014529950267 
198.114600755386 0.061686629613495234 
198.126945260377 0.13759631374442485 
206.096375291986 0.1182709853706958 
207.103770899555 0.052940404276085234 
208.112417065764 0.10444536905039672 
209.109547306827 0.3904362176992957 
210.091721008564 0.08583015153497327 
210.128709272756 0.09420359733156025 
211.087493819454 0.06033899021341314 
211.122934669403 0.25154077264988617 
212.105945141572 0.11671290445703528 
222.091190130405 0.06287229063856703 
223.086955613281 0.05991163344603935 
223.099340185972 0.05746064842600447 
223.122867475355 0.5440434621742506 
223.132413512768 0.09535675478595973 
224.108509720658 0.14371186281425177 
225.10220061846 0.1441197084479163 
225.1387794523 0.1630156794887184 
227.118600768915 0.055955121695076944 
234.092507122793 0.04953701518316864 
237.102562734702 0.08990739404532787 
237.137497008663 0.05966025901254782 
238.125595891429 0.047016774629771746 
239.117886843898 0.24364280958527154 
239.12739700189 0.04968328125119416 
241.133495344924 0.07925071851772929 
251.118228800208 0.159203455718493 
252.125594068479 0.17398507263401655 
255.149543920529 0.10304270285847102 
END IONS

BEGIN IONS
TITLE=leuconoxine.mgf
PEPMASS=311.1748602
CHARGE=1+
RETENTION_TIME=290.407
PRECURSOR_MZ=311.1748602
SMILES=CC[C@]1(CCC2=O)CCCN3C(C[C@]4([H])C5=CC=CC=C5N2[C@]413)=O
INCHI=InChI=1S/C19H22N2O2/c1-2-18-9-5-11-20-17(23)12-14-13-6-3-4-7-15(13)21(19(14,18)20)16(22)8-10-18/h3-4,6-7,14H,2,5,8-12H2,1H3/t14-,18-,19-/m1/s1
COMPOUND_NAME=leuconoxine.mgf
IONMODE=positive
SKELETON=Leuconoxane
103.053921404536 0.047747294915564134 
105.069122552353 0.02706998953639853 
106.065143605538 0.02693171696802656 
107.085802945076 0.024834574733598826 
109.101290411797 0.031256870982369546 
110.096861690787 0.028342249531887156 
112.112106422879 0.06240889064956806 
117.057358906556 0.07661002498478821 
124.075734066188 0.14162216296123567 
124.083880294518 0.027013067411893264 
124.112059754013 0.026922955896201337 
128.049362913834 0.15678141738574253 
128.057982413677 0.036480324686315534 
128.062538103187 0.024586581747755992 
129.070245063279 0.06664938190555465 
130.06513759297 1.0 
130.072942373426 0.16706668384653783 
130.083926772931 0.037174569241781405 
130.091223172216 0.032037434453436646 
131.078665875064 0.03262048461148373 
132.080977793743 0.34877197596452114 
132.08943437039 0.06681981704762148 
137.095794024936 0.07211296184843048 
142.065239789593 0.031200280089313248 
143.072361093075 0.0653799870620996 
144.080931630956 0.16834904640122 
144.089320374598 0.030403950001275243 
146.060185942433 0.23853848097919966 
146.068249899437 0.04268187173592109 
154.065431051465 0.04687300950601135 
155.072847844013 0.05291723817892924 
156.081177559366 0.1014415192659116 
157.088750684012 0.05299807521405005 
158.059953799189 0.0857234111407048 
158.096135296433 0.07032699499873635 
166.065496953006 0.025193778678432893 
167.072799264794 0.1258041554310199 
167.080961507882 0.026409414657720325 
168.080786112461 0.32430291513485926 
168.089901686594 0.053494723648633655 
170.060093023817 0.0339747243905921 
170.096664649998 0.16612151490690577 
170.10483954593 0.038216408079794977 
171.104250330647 0.047430703896639885 
172.112223778308 0.03578692477104454 
174.127824289173 0.0821351808540273 
180.08060848069 0.12416292016295263 
181.08864484989 0.157265909626149 
181.096483661533 0.04193597163598856 
182.096707174208 0.34550487456761875 
182.106037354164 0.06210682412968109 
183.067788774217 0.04347015289974916 
184.075748000496 0.09659174432111962 
184.111859025269 0.0675123723226976 
186.127679504896 0.0890645096433068 
193.088004811933 0.030043487376935095 
194.095676122781 0.09552580839519356 
195.104436204643 0.05386649782695608 
196.075950088859 0.09946429937758298 
196.111572343201 0.20490573649809526 
197.082429701846 0.03623372287255837 
198.091515744296 0.34439177128335957 
198.126968998241 0.030096881886508844 
208.111431023651 0.10249203636788817 
209.119519649661 0.03989710957500686 
210.090862817043 0.0353984565276941 
210.127807577492 0.0862990085911501 
212.108429883408 0.030380995661861712 
212.143318430563 0.027050794673930793 
213.115191802035 0.07964024621096065 
222.091744665855 0.10339790469610012 
224.106924527392 0.0577309917036459 
227.117462610023 0.04849871001912199 
228.138130117584 0.4907692419801413 
228.14896026789 0.09570823411571307 
236.106254505458 0.05975224881311492 
237.113864928352 0.03402616463461693 
241.133210599876 0.040364410903211856 
END IONS

BEGIN IONS
TITLE=conolutinine.mgf
PEPMASS=313.1903933
CHARGE=1+
RETENTION_TIME=182.399
PRECURSOR_MZ=313.1903933
SMILES=O[C@@]12[C@@]3(N4CC1)N(C5=CC=CC=C25)[C@H](O6)C(C[C@@]6(CC)C4)CC3
INCHI=InChI=1S/C19H24N2O2/c1-2-17-11-13-7-8-19-18(22,9-10-20(19)12-17)14-5-3-4-6-15(14)21(19)16(13)23-17/h3-6,13,16,22H,2,7-12H2,1H3/t13?,16-,17+,18+,19+/m1/s1
COMPOUND_NAME=conolutinine.mgf
IONMODE=positive
SKELETON=Conolutinan
103.05459918169 0.025427406749170087 
104.049573080402 0.04858934358988152 
105.033754496784 0.02633277540249124 
105.070037583465 0.058552272913009344 
106.065065201182 0.052263499219483034 
108.081063811994 0.03349382982971385 
115.053942735082 0.07703211136823745 
117.05738174214 0.16651747706293896 
117.064597377893 0.029044102053757914 
118.065320217655 0.06579985662073909 
119.085254210394 0.058135635125643056 
122.096143483915 0.029004988274141975 
130.065228455029 0.2788460245358536 
130.072992588158 0.033694395277794734 
132.044262033201 0.10779653179429938 
132.08080562396 0.22985273108526513 
132.088815563112 0.04149521500165 
142.065441510588 0.04341842640743917 
143.072655992698 0.0328599921172441 
144.080814769625 0.09727584576694973 
146.060126877308 0.2890246072328941 
146.068150451347 0.03910491410175376 
156.080382010979 0.03608794962484496 
158.06023650784 0.1469935872435906 
160.075821970653 1.0 
160.084162204815 0.14680200110275823 
160.104800028624 0.04649334776091457 
167.073059667434 0.11011139306503687 
168.081027675809 0.08774738353538498 
170.0602097557 0.12490025003439655 
172.076171350803 0.037659995634484265 
180.080846464704 0.09022921026578956 
181.088949998159 0.04206320273682664 
182.060015735086 0.03999188448555707 
182.096161890172 0.10086927556231878 
183.068003303021 0.08140326503335689 
184.075816539467 0.08947533121540303 
192.081441393997 0.03232518540510848 
193.088533656116 0.06104097895138657 
194.09658199732 0.20022127578576698 
195.06813459595 0.10667691149072017 
196.075164973348 0.12027797576621525 
197.083358916915 0.07812617995648967 
198.091238912621 0.09616574270146803 
208.075849074727 0.024577103594102208 
209.083245833871 0.03275770766975598 
210.09163841586 0.23099045483087766 
210.10079234393 0.04071313078857559 
212.106996274791 0.03161338392641934 
218.095947377376 0.02509849306948515 
237.102280740128 0.19993870691768728 
237.112940608037 0.039350562292909556 
END IONS

BEGIN IONS
TITLE=inaequalisine-A.mgf
PEPMASS=443.267
CHARGE=1+
IONMODE=positive
SMILES=CC[C@]1(C2)CC[C@]34[N@+]2(CC[C@@]3(C/C=C/C5=CC=C(O)C(OC)=C5)C6=CC=CC=C6N4)CC=C1
INCHI=InChI=1S/C29H34N2O2/c1-3-27-13-7-18-31(21-27)19-17-28(14-6-8-22-11-12-25(32)26(20-22)33-2)23-9-4-5-10-24(23)30-29(28,31)16-15-27/h4-13,20,30H,3,14-19,21H2,1-2H3/p+1/b8-6+/t27-,28+,29+,31+/m1/s1
SPECTRUM_ID=CCMSLIB00005723369
MS_LEVEL=2
INSTRUMENT_TYPE=LC-ESI-qTof
PEPTIDE_SEQUENCE=*..*
ORGANISM_NAME=MIADB
PRINCIPAL_INVESTIGATOR=Mehdi Beniddir
DATA_COLLECTOR=Mehdi Beniddir
SUBMIT_USER=mbeniddir
CONFIDENCE=3
PRECURSOR_MZ=443.267
COMPOUND_NAME=inaequalisine-A.mgf
SKELETON=Rhazidane
SCANS=1
102.048546 0.0057652182413504135 
103.056595 0.7855973325445458 
103.14769 0.02289026063965291 
104.059883 0.06655911670214686 
104.151855 0.0015992763989018546 
105.067116 0.002845417480658549 
107.051788 0.0010504307559477675 
107.074997 0.002793031369144123 
108.082993 0.004795617560618976 
110.098854 0.0016107625126766953 
122.098953 0.006009460873404726 
124.11454 0.006366043853426962 
130.068649 0.0033599331582968234 
131.052155 1.0 
131.154602 0.04140888581398564 
132.055588 0.09568356874121403 
132.158051 0.0018277347815517453 
133.059616 0.0050729560238450145 
136.115402 0.006019307935427586 
138.130829 0.0017894646126571838 
143.076889 0.0032309693331097882 
144.084061 0.012126138674345975 
145.086517 0.001589479714999181 
156.084274 0.003184221255467464 
157.092285 0.0023281169102991276 
158.100174 0.008152424555201054 
159.102417 0.001069330132697422 
163.079376 0.12676506472731427 
164.082504 0.014239619680138876 
168.084885 0.0023176552906802837 
170.100021 0.002354023813674176 
172.115601 0.0011065291524818726 
180.084915 0.0011676603687082647 
182.099136 0.0011766045474268926 
196.115921 0.0011272368652239676 
210.132263 0.0015058494461360572 
224.147797 0.0018722232834613797 
238.165482 0.0010267267531975503 
252.179672 0.0010178789973799994 
279.192993 0.0053519271797086345 
280.197174 0.0013142682446300943 
281.208466 0.05581935724518993 
282.211823 0.012375981425217656 
283.218292 0.0016296515297944119 
443.281738 0.0012199661725511633 
445.2948 0.0010036994724913803 
END IONS

BEGIN IONS
TITLE=inaequalisine-B.mgf
PEPMASS=473.279
CHARGE=1+
IONMODE=positive
SMILES=CC[C@]1(C2)CC[C@]34[N@+]2(CC[C@@]3(C/C=C/C5=CC=C(O)C(OC)=C5)C6=CC=CC(OC)=C6N4)CC=C1
INCHI=InChI=1S/C30H36N2O3/c1-4-28-13-7-18-32(21-28)19-17-29(14-6-8-22-11-12-24(33)26(20-22)35-3)23-9-5-10-25(34-2)27(23)31-30(29,32)16-15-28/h5-13,20,31H,4,14-19,21H2,1-3H3/p+1/b8-6+/t28-,29+,30+,32+/m1/s1
SPECTRUM_ID=CCMSLIB00005723370
MS_LEVEL=2
INSTRUMENT_TYPE=LC-ESI-qTof
PEPTIDE_SEQUENCE=*..*
ORGANISM_NAME=MIADB
PRINCIPAL_INVESTIGATOR=Mehdi Beniddir
DATA_COLLECTOR=Mehdi Beniddir
SUBMIT_USER=mbeniddir
CONFIDENCE=3
PRECURSOR_MZ=473.279
COMPOUND_NAME=inaequalisine-B.mgf
SKELETON=Rhazidane
SCANS=1
102.048546 0.0057652182413504135 
103.056595 0.7855973325445458 
103.14769 0.02289026063965291 
104.059883 0.06655911670214686 
104.151855 0.0015992763989018546 
105.067116 0.002845417480658549 
107.051788 0.0010504307559477675 
107.074997 0.002793031369144123 
108.082993 0.004795617560618976 
110.098854 0.0016107625126766953 
122.098953 0.006009460873404726 
124.11454 0.006366043853426962 
130.068649 0.0033599331582968234 
131.052155 1.0 
131.154602 0.04140888581398564 
132.055588 0.09568356874121403 
132.158051 0.0018277347815517453 
133.059616 0.0050729560238450145 
136.115402 0.006019307935427586 
138.130829 0.0017894646126571838 
143.076889 0.0032309693331097882 
144.084061 0.012126138674345975 
145.086517 0.001589479714999181 
156.084274 0.003184221255467464 
157.092285 0.0023281169102991276 
158.100174 0.008152424555201054 
159.102417 0.001069330132697422 
163.079376 0.12676506472731427 
164.082504 0.014239619680138876 
168.084885 0.0023176552906802837 
170.100021 0.002354023813674176 
172.115601 0.0011065291524818726 
180.084915 0.0011676603687082647 
182.099136 0.0011766045474268926 
196.115921 0.0011272368652239676 
210.132263 0.0015058494461360572 
224.147797 0.0018722232834613797 
238.165482 0.0010267267531975503 
252.179672 0.0010178789973799994 
279.192993 0.0053519271797086345 
280.197174 0.0013142682446300943 
281.208466 0.05581935724518993 
282.211823 0.012375981425217656 
283.218292 0.0016296515297944119 
443.281738 0.0012199661725511633 
445.2948 0.0010036994724913803 
END IONS

BEGIN IONS
TITLE=leucolusine.mgf
PEPMASS=331.2016889
CHARGE=1+
RETENTION_TIME=114.464
PRECURSOR_MZ=331.2016889
SMILES=O[C@@]1(CCN2[C@@]3([H])OCC[C@@]3(CC)CCC2)C(NC4=CC=CC=C14)=O
INCHI=InChI=1S/C19H26N2O3/c1-2-18-8-5-11-21(17(18)24-13-10-18)12-9-19(23)14-6-3-4-7-15(14)20-16(19)22/h3-4
COMPOUND_NAME=leucolusine.mgf
IONMODE=positive
SKELETON=Leucolusinan
102.033958553046 0.04819594262997834 
103.05435325394 0.0689603900877658 
108.080568130301 0.13760361706279206 
109.088217124601 0.039775155556168736 
110.096452327794 0.319612198520615 
110.10371687833 0.04358801118703597 
111.080373696576 0.08298273656658907 
115.053923716499 0.030290362317269545 
117.057392456817 0.033483831421853356 
118.065644755259 0.028729569764256276 
120.044370362076 0.06682649648286369 
120.08095745903 0.043157440384096114 
122.096561681992 0.09119310645225505 
123.10415802363 0.07273378756851469 
124.112171539436 0.4437201033559137 
124.119686252743 0.06398215908217426 
126.091461950687 0.15778817556314587 
128.049356100633 0.09788112493175631 
130.028964044837 0.06335413985371709 
130.065313349873 0.488841936799948 
130.07289903681 0.07059469069106948 
132.044378660643 0.04700447205507585 
132.080921099821 0.053316554093339616 
138.127942614683 0.08694424023351657 
139.111750637006 0.042227355417020614 
140.106948266907 0.06019007712274796 
146.060219666897 0.25086506376965273 
146.068352954259 0.042593161244291675 
148.039492099619 1.0 
148.04742641348 0.1345964014640117 
152.143680993936 0.04790727926003158 
154.12295741682 0.02586303567592284 
158.060337013385 0.07254855894972732 
176.070600521108 0.09719977215973258 
271.144431152827 0.19785936579203073 
271.154082188284 0.040087351908753524 
END IONS

BEGIN IONS
TITLE=mersidasineC.mgf
PEPMASS=505.2179057
CHARGE=1+
RETENTION_TIME=150.731
PRECURSOR_MZ=505.2179057
SMILES=COC([C@]12CC[C@]([C@@]3(O)C(OC)=O)([H])[C@](C4=C(N3C(OC)=O)C(OC)=CC=C4)([C@]25[H])CCN5CC[C@@H]1O)=O
INCHI=InChI=1S/C25H32N2O9/c1-33-15-7-5-6-14-18(15)27(22(31)36-4)25(32,21(30)35-3)16-8-10-24(20(29)34-2)17(28)9-12-26-13-11-23(14,16)19(24)26/h5-7,16-17,19,28,32H,8-13H2,1-4H3/t16-,17+,19-,23+,24-,25-/m1/s1
COMPOUND_NAME=mersidasineC.mgf
IONMODE=positive
SKELETON=Mersidasinan
120.0811973907 0.17411333022389688 
132.081078870835 0.2789111790062963 
134.060571569006 0.24194900524237006 
134.097488262059 0.22742188123233836 
149.058973371557 0.15614474717777882 
162.054690113131 0.4847061145844797 
162.059752031189 0.18114088949680118 
173.08193053977 0.21065002361191904 
174.091133014972 0.14987471999059018 
176.070311538736 0.24246878772156916 
184.075804205987 0.14649483827727905 
188.070724529351 0.16797577434575187 
188.106949807683 0.282160074253808 
198.092132539677 0.19371975359754226 
200.069555117782 0.2134341338094148 
210.093470555685 0.34918913001578594 
210.101855872571 0.1511063829043883 
212.106517295273 0.16783430663352264 
214.086126126263 0.19018067339679146 
215.081214509461 0.3433918361571558 
223.099166226898 0.20729643235840273 
224.107194417182 0.24639590695681085 
225.078322877635 0.18022651720409255 
227.081281341406 0.5066931492826461 
228.101911849177 0.15028168349780155 
229.09755582689 0.37007039321560564 
232.094285923675 0.17905555817586716 
236.071802082936 0.2170325203962144 
236.107591344136 0.23105430275546146 
237.07833976639 0.17923507863555135 
237.112671356165 0.14974210310867947 
238.086699460896 0.2052989397054653 
238.125274695459 0.15878302247703296 
239.081012192161 0.15050193524569497 
250.086029885791 0.20834403293906378 
251.081777639226 0.2094562096435619 
251.1180606053 0.19927006852988288 
252.10145615521 0.3060302686751064 
252.105990423282 0.17541681879031273 
252.140395125489 0.19975040076210307 
253.096709611213 0.48645415357238725 
254.08080116439 0.20271895178219038 
258.082658905778 0.14790826347291441 
261.124520560203 0.1950474946036138 
262.088609169144 0.16221909531703732 
264.066410356615 0.1767254606362233 
264.101428996749 0.3559288626158978 
265.071729749468 0.15225285657637072 
265.099331771278 0.283629574117843 
265.109218207984 0.225246352962961 
266.081229368263 0.23477127299978515 
266.113802275083 0.15138591192375708 
266.119571985866 0.15067749612339457 
267.1111204565 0.15701568052695047 
268.0972472837 0.39709570484344214 
269.102969904262 0.21482915859465118 
270.11267143713 0.43581604946682484 
275.080827043895 0.16025493885066144 
277.097420881463 0.21543587719007098 
278.116023338183 0.1608586877595928 
279.10958668814 0.24705465329492537 
279.149133198347 0.2177980881041929 
280.095408269466 0.37836105914159757 
280.117765340208 0.19168534366551312 
281.12980057035 0.25094063363792996 
284.091706076206 0.21270487197448631 
284.129394573373 0.26007110943411166 
284.136759177194 0.15757281700384254 
289.09689758067 0.20075275729567538 
289.131605237467 0.18419931720502422 
291.113030881838 0.2381251262844622 
293.128600710998 0.3583171310732272 
293.14025048554 0.155327879591441 
296.088316025559 0.1640273141281961 
296.128826309078 0.16920097382425164 
307.106187275799 0.21449655370794474 
307.142841351033 0.6249906105500733 
307.148015826525 0.3700837859193771 
309.155576489867 0.16701301363202553 
309.16214281553 0.2605425617214399 
310.1074200178 0.14703893142528066 
312.119427589555 0.22392079554989566 
317.128289201851 0.36783934345472363 
319.143771962383 0.16320057670147023 
324.083532942176 0.2283531982067752 
325.120111344042 0.16373308224925218 
325.155846632495 0.17756742498484585 
328.116226975189 0.18577470677257382 
328.122395823855 0.15361990225655411 
333.126721971836 0.15311182383586833 
335.139421900494 0.9096027432915655 
335.153922854629 0.1811383856434874 
337.11907214854 0.18154421368233556 
337.127540393238 0.1922264962415997 
337.153659980328 0.251600253413247 
339.168184450768 0.16723146027636718 
340.117618915331 0.21594410118362387 
341.15171247253 0.21115524880441006 
351.134561170156 0.16042822879163457 
353.150839522938 0.22309493156037224 
363.135267137641 0.1865887793598637 
367.165399503599 1.0 
367.173572300402 0.3830429736926538 
381.140153565313 0.18927384177859766 
385.174461906832 0.2833235799512389 
395.160167003125 0.3977985306457088 
427.17821440555 0.15160660039025176 
455.18062380038 0.3718015457509318 
END IONS

BEGIN IONS
TITLE=mersiloscineA.mgf
PEPMASS=503.1697113
CHARGE=1+
RETENTION_TIME=253.729
PRECURSOR_MZ=503.1697113
SMILES=COC(N1C2=C([C@@]34CCN5C[C@H]6OC([C@]([C@H]6O)([C@@]45[H])CC[C@@]3([H])[C@]1(C(OC)=O)O)=O)C=CC7=C2OCO7)=O
INCHI=InChI=1S/C24H26N2O10/c1-32-20(29)24(31)14-5-6-23-17(27)13(36-19(23)28)9-25-8-7-22(14,18(23)25)11-3-4-12-16(35-10-34-12)15(11)26(24)21(30)33-2/h3-4,13-14,17-18,27,31H,5-10H2,1-2H3/t13-,14-,17+,18-,22+,23-,24-/m1/s1
COMPOUND_NAME=mersiloscineA.mgf
IONMODE=positive
SKELETON=Mersidasinan
106.065817972116 0.040588203768450064 
108.081301595549 0.05122743049405156 
118.066109393986 0.03682388223207497 
119.073888535408 0.06586362509163149 
120.081773129021 0.16293291621134787 
120.089090056635 0.026021004163044557 
121.089754371837 0.03834793986975838 
122.097111054906 0.06513770384884052 
130.06568693797 0.05533074993845816 
132.081565917898 0.3033457416223611 
132.089159167727 0.04501621434547184 
134.024537436482 0.06766200947063114 
134.061212557482 0.03187586351608763 
134.096996486768 0.08653128369472703 
135.068706654596 0.05303785073173479 
136.076553101373 0.05952713155057286 
140.071155164671 0.050610922019444504 
144.08202130453 0.029569697613811535 
146.060890936396 0.024798946657982684 
146.097375658512 0.0777142678064852 
148.076756248845 0.11728808032141648 
148.112960058423 0.09759927766680565 
149.084634183093 0.12348713798180906 
150.092441641358 0.21768231146622194 
150.100626152673 0.03535485799049304 
156.081745523792 0.06300504052678 
158.097660334904 0.2684738622025894 
158.105932275571 0.0500929713310388 
159.105088279538 0.1365474526218642 
160.076611650209 0.02785813038150493 
162.092563986533 0.07993922118456467 
164.035340093151 0.11340513063675597 
164.043555811026 0.024725977561525947 
168.081783490282 0.047550997977067376 
172.039899123389 0.03895641384096498 
172.076454778563 0.026488740340655677 
174.056036607148 0.046824985897607085 
174.092422605653 0.08695544552207014 
175.099860986139 0.04371905308222445 
176.108129603808 0.44695211181630645 
176.117064713986 0.08033304356435823 
177.115902285008 0.10508331085125767 
184.07644444892 0.03510230934064387 
186.092510265913 0.3051796885573956 
186.101471522837 0.04609520409637044 
190.014556766547 0.10271937736913388 
194.082514140548 0.10252003629833306 
202.087388344301 0.03977178195202552 
204.103330894421 0.2808895998372207 
204.113706032985 0.04984943822061866 
205.111193453567 0.09571468928863079 
208.098017169432 0.03624346770801824 
214.087360931889 0.026306449312684343 
218.083055585052 0.034799023869151596 
218.119084102021 0.2895937965821795 
218.128491116838 0.056137652071939007 
219.090194730118 0.0498063816393657 
220.098186009372 0.14375379810823552 
220.107665995051 0.030149367277179925 
222.041546266388 0.035012594504199836 
222.113857849376 0.08071446673879099 
230.08289331457 0.04351318539673369 
234.114546330722 0.03836771047083371 
236.093400170829 0.02601115746809135 
236.12971211703 0.23541876158735262 
236.138900791778 0.04992674022620147 
241.061819441788 0.059893157909557564 
243.077262563222 0.03611715477750921 
246.077276158127 0.029664726395410207 
246.114254986288 1.0 
246.124001067349 0.14638174836970888 
246.149359974858 0.05505724072716571 
248.093353007162 0.15997263999520384 
249.100885107938 0.06386698968186273 
262.109229659798 0.05204182665275049 
264.124842736758 0.7404165042961203 
264.134695402325 0.12160382131700453 
264.163459738955 0.038339060585333325 
275.104626003405 0.04238140137363212 
280.119874106358 0.032647075922196574 
308.115092168881 0.6063515724281642 
308.126122450359 0.1011927763047098 
308.149210599345 0.03096721522931263 
321.125477279552 0.07125528101686202 
339.099644969048 0.029352316380485743 
339.137194538366 0.05036975066242641 
349.120539724028 0.041586730397673854 
353.116081581353 0.04369865570813088 
365.115391811453 0.030897439041782142 
366.122859837978 0.02743663461040607 
367.131059615934 0.062262178245162725 
381.146854956709 0.026374622233001507 
383.126619920664 0.079971695293843 
393.10979889553 0.03800740682201554 
399.157635804626 0.027749516976010948 
411.122363512715 0.04160774546111873 
425.13611966227 0.029167940650953742 
443.147674272696 0.05351701416234511 
END IONS

BEGIN IONS
TITLE=3_epimeloscine.mgf
PEPMASS=293.1655884
CHARGE=1+
RETENTION_TIME=747.832
PRECURSOR_MZ=293.1655884
SMILES=C=C[C@]12C[C@@]([C@@]3(CC4)[C@@]1([H])N4CC=C2)([H])C(NC5=C3C=CC=C5)=O
INCHI=InChI=1S/C19H20N2O/c1-2-18-8-5-10-21-11-9-19(17(18)21)13-6-3-4-7-15(13)20-16(22)14(19)12-18/h2-8,14,17H,1,9-12H2,(H,20,22)/t14-,17-,18-,19-/m0/s1
COMPOUND_NAME=3_epimeloscine.mgf
IONMODE=positive
SKELETON=Melodinus
101.039265891437 0.07347466276201013 
102.044773485455 0.03614813772302725 
103.055586567405 0.23943929902591743 
104.052386251954 0.10622514346537025 
105.071032481318 0.24738462886345228 
106.068667276191 0.10375326100025445 
107.084884197962 0.0719785312240483 
108.083820656271 0.026272239812024718 
114.046856281024 0.03559099716937256 
115.055317945438 0.431787284452427 
116.058587413459 0.11037471094885205 
117.062763978144 0.21408863955589816 
117.070052878913 0.05590838721343043 
118.066694258546 0.11680220186838189 
119.08496043302 0.03217341297987617 
120.045427406106 0.04465182909609128 
120.080405985217 0.05334492178725649 
126.04651902019 0.0259243625029942 
127.055392639141 0.3294748752687791 
128.056088130788 0.29416780764782036 
129.066335466264 0.1440408162124024 
130.066344741246 1.0 
130.169973792795 0.025068072069620202 
131.067145333369 0.17686854499038593 
131.078759559578 0.06511210198088 
132.04580877337 0.17262847572063564 
132.080323277193 0.12335440070761026 
133.069976597948 0.061412284568932815 
134.094286720735 0.033008844196188485 
135.081025760816 0.03233823621245831 
139.055029887281 0.02630350999667259 
140.050647281995 0.16025843805660697 
141.061130137855 0.08520471951436612 
142.06627239023 0.09198968782942045 
143.073905478834 0.204954669882851 
144.081337661386 0.38752958084903916 
145.085064984541 0.03661571785811818 
145.0982904314 0.04655698956200304 
146.061548132216 0.08624462325252795 
151.054450533411 0.10318098399954517 
152.058314423104 0.11099974182291662 
153.061800021321 0.05377716801176617 
154.066679953945 0.3668248972184915 
155.071968071869 0.08601483632784575 
156.080439030151 0.09148333452946063 
157.079945110362 0.07819494140685074 
158.062461563577 0.21094437821731055 
158.070920212688 0.058925582552821446 
159.083741677337 0.14540747706930796 
160.084674672627 0.030081106750165672 
164.057703950805 0.028958325372096555 
165.066431958096 0.11754206096148129 
166.068067593553 0.14352511447870134 
167.072548201988 0.15084746394608292 
168.08086949786 0.12492303619978247 
169.079766823128 0.09252445924949693 
170.070670745747 0.047919670577226174 
171.092601113996 0.14604676826602864 
172.078483547785 0.26255099463420406 
173.08078624133 0.07353890877774122 
176.063836095027 0.04244185190328705 
177.063380087913 0.051767170873151164 
178.069892555685 0.13599734180129314 
179.074647703427 0.08074111735686318 
180.08166103822 0.28971187623904027 
181.083386288813 0.14738612013902416 
182.08287024045 0.09217953653019322 
183.073405762941 0.07598880424864411 
184.076607002054 0.19805845241013437 
185.08088268213 0.04759429288838641 
189.070697791242 0.06915603123103867 
190.070604293526 0.10877876647276978 
191.081382114372 0.06859113604441018 
192.082549509255 0.06555818910679118 
193.090457962766 0.12181642956938488 
194.097549953019 0.10593928457918535 
195.095988794359 0.056973195253642674 
196.078702746442 0.12606395521699457 
197.076914049918 0.09852074783741742 
198.089360262748 0.04730859245023101 
199.088413143719 0.10832019923441641 
200.091194506649 0.03417368886585697 
201.069938375171 0.03751119155714335 
201.104868422299 0.03430602093191675 
202.077079257662 0.14266558052095848 
203.081676521073 0.11115390243515981 
204.084292611366 0.1808421419563858 
205.088497338048 0.08065999196575285 
206.096905113643 0.09475080319170254 
207.104460926316 0.07744613466032005 
208.081135412372 0.15783772498455131 
209.0855555716 0.06529245312035432 
210.092833450542 0.040000372818892974 
214.068218070345 0.10404601703595932 
215.079402702899 0.09615344107177975 
216.082605058469 0.13010969263878416 
217.091170240868 0.211699616089745 
218.096910692651 0.14735825192677465 
219.100112144164 0.048713998510588524 
220.108935099118 0.09977584264060166 
221.119122311198 0.029373897271618137 
222.127723492633 0.1915396208618268 
223.12974419002 0.035072005308941036 
227.074695383572 0.04279405391147602 
228.082343098169 0.08049878507643253 
229.088297272027 0.04275158051909439 
230.09912073669 0.2763653326895994 
231.101234855045 0.11315808359904446 
232.112778705526 0.14769583943435918 
233.089444856635 0.04564662174820371 
233.110892103052 0.09152961067455055 
234.094471513705 0.10926995536425804 
235.103988177038 0.04176739456448695 
236.139238267379 0.03947412031052086 
238.127104873312 0.037805149933778044 
247.102627608991 0.02646164113012591 
248.110738641192 0.27865863490498244 
249.112691306813 0.08477133619223289 
250.124937997215 0.3076457698570333 
251.128055993914 0.07446529848346595 
252.130780805041 0.027526710143563237 
264.141688942458 0.04020221696754705 
293.168799188989 0.18675868458309994 
294.171120902314 0.048145356494085696 
END IONS

BEGIN IONS
TITLE=goniomine.mgf
PEPMASS=311.1754639
CHARGE=1+
RETENTION_TIME=72.815
PRECURSOR_MZ=311.1754639
SMILES=C=C(C1=O)[C@H]2CCN3CC[C@@]1([C@@]3([H])[C@@]42O)C5=CC=CC=C5N[C@H]4C
INCHI=InChI=1S/C19H22N2O2/c1-11-13-7-9-21-10-8-18(16(11)22)14-5-3-4-6-15(14)20-12(2)19(13,23)17(18)21/h3-6,12-13,17,20,23H,1,7-10H2,2H3/t12-,13+,17-,18+,19+/m0/s1
COMPOUND_NAME=goniomine.mgf
IONMODE=positive
SKELETON=Gonioman
103.054459865774 0.11648712365369851 
104.049636831112 0.10393301133430786 
105.06989265164 0.08665681294705017 
106.065165515291 0.1707347238428205 
106.072264086995 0.04536672753850758 
107.073482314584 0.04824899474709268 
108.08043763843 0.10705761823379126 
115.053993404548 0.21319529992756106 
115.061963544314 0.04776553533241665 
116.049288334367 0.04898815927023194 
116.061875890666 0.028764628761294188 
117.05730942192 0.2271852593270553 
117.065101994505 0.050843431046373934 
117.069843555272 0.08541973917645171 
118.065149558452 0.2813466485063265 
118.071603470075 0.0582745761020912 
119.085302829794 0.05193850064414264 
120.080881663503 0.15163681633042567 
120.088505137927 0.02959092604721978 
122.060292984775 0.06350302985611979 
122.096538322468 0.0510706702553581 
127.05457466829 0.08664642967133544 
128.049352932831 0.08388591518137929 
128.061436656114 0.12536444484447318 
128.070318859813 0.02791610096339448 
129.069752217621 0.10906666008788102 
130.065109578147 0.6897607346262455 
130.072392321475 0.12824313348283806 
130.082816060251 0.03031992417768794 
132.043702987281 0.030351697543582648 
132.081133242891 0.29765950663445234 
132.087966136723 0.059115567214224056 
134.095608117474 0.05002477888773701 
136.076380088529 0.048861797786925426 
141.068418807313 0.04140156329297863 
142.065426108517 0.10340322027943212 
142.0751593823 0.04238811003778103 
142.079172635309 0.031677205375229354 
143.07310247344 0.29363009078724206 
143.080710067775 0.07004574063390577 
143.086445560451 0.037461313487088956 
144.080745464011 0.6745165676957044 
144.088493806157 0.16022514086553685 
144.096961230229 0.03432361227384521 
144.100212184272 0.03219872776406595 
144.108090817714 0.03676232654778584 
146.060012056143 0.05602818286710708 
146.096334718421 0.0991372934731217 
148.111403878675 0.04317303688313041 
152.061198575296 0.06133143416081444 
153.070128326488 0.028556990357379877 
154.065234111026 0.2607395332243134 
154.072617459947 0.0601412342380248 
155.072692661809 0.09684871648614769 
155.081799752421 0.02952068305145767 
156.080545519235 0.2731799174976902 
156.088355340212 0.0540364374357484 
157.089304529429 0.20677312190128352 
157.098200172774 0.036462946616407636 
158.096724632444 0.17451754366940087 
158.106214400486 0.04841924793635784 
160.075950808358 0.056447824446189156 
165.069864458267 0.13860965498245417 
165.078173707669 0.0320074098091863 
166.064594340593 0.04424430356685854 
166.078612640945 0.03673795431575569 
167.072881582545 0.4806423750428344 
167.082329327338 0.13631500527025797 
167.091409583272 0.038482669960397155 
167.102637276645 0.02950617899791359 
168.080998505721 0.8742623265477859 
168.089896367597 0.21347938960436197 
168.101316265294 0.052324064474991216 
168.107674062283 0.038527971406139526 
168.11256339721 0.04173320457709976 
169.088478691863 0.3989498523026473 
169.097804358734 0.08410456039975883 
170.0967450389 0.5125420753104681 
171.090204624218 0.0392550446995953 
178.064089044146 0.027911465088336463 
178.077760107247 0.06418274131491852 
179.072607816406 0.07460847188545106 
179.085042527123 0.05886211226733872 
180.080506812402 0.4985094712825162 
180.089440571167 0.10592898598501772 
180.100806989002 0.031242002437765416 
181.088504073704 0.4851958345442637 
181.097193499595 0.10260384360129957 
182.096272962099 0.6385229288753747 
182.105054451501 0.12932719626614153 
182.118660719001 0.02953957898663567 
182.127448410183 0.0322237235348466 
184.11184657503 0.5292846329688252 
186.090952922812 0.06559917736261543 
191.072470389182 0.1532565531211639 
191.086216396896 0.04361688803195989 
192.080659270436 0.4034130342371573 
192.089589713966 0.09585802185313548 
193.088734576882 0.677934373359822 
193.098198347128 0.11560796112588326 
193.111940521701 0.03476860205865385 
194.096307400203 0.682108287534864 
194.105419204483 0.1309740976580969 
194.118127777878 0.02989271880245859 
194.128218433837 0.030914698814517284 
195.113135270533 0.037045792685836236 
196.075422416526 0.05057227302105067 
196.112999584451 0.10440733455077016 
197.107342262596 0.056884166019632254 
200.106588057437 0.03350758982211253 
202.07737796352 0.030402936162644934 
203.084787905183 0.036695824784526695 
204.080818346009 0.4335795678822239 
204.091025094001 0.10671407549264984 
205.088605995666 0.24976766403949008 
205.097296209557 0.062380687215612116 
206.083452695286 0.11957553819527282 
206.096141335182 1.0 
206.104760140765 0.24975934115269005 
206.118413450151 0.07100151709689033 
206.12837847597 0.050989908431978974 
207.068029581798 0.028163618736959908 
207.091172908809 0.27692467435011 
207.103461149692 0.5238216202030893 
207.11377357838 0.10145628830696758 
207.126300823851 0.0333889819076165 
208.075624351334 0.08281716976303359 
208.112062698756 0.40796649373858657 
208.121869672344 0.09924923223402549 
208.136873587794 0.028467065225406547 
209.083997665368 0.06304619283505176 
209.10732371022 0.11030004684673744 
209.117320007571 0.05961182272847545 
210.092517655554 0.05176976563618304 
210.114210285095 0.03335704587943905 
210.127384034323 0.0456165496944118 
216.080748220883 0.07036718841497534 
217.088515323367 0.573858978307358 
217.098631698734 0.08732765931143971 
218.096519375711 0.36116774168361976 
218.106419431821 0.0822808451064679 
218.119905862241 0.02908865202850711 
219.066660126097 0.02758860756748316 
219.102466189088 0.12094838075119611 
219.113046696747 0.04673829590654944 
220.075771875292 0.24284036540455198 
220.099808746823 0.07976532712469474 
220.112109986467 0.5517523607719301 
221.082106110445 0.1449332325550124 
221.092390216173 0.040584239542984055 
221.107873400987 0.2808198938140618 
221.11897605024 0.21153329805369156 
221.12986800706 0.057413360646137966 
222.090965027312 0.28591854306646597 
222.098279873298 0.06279723821132216 
222.114301806979 0.08341037199779648 
222.127071747315 0.21994657086219688 
222.13479007296 0.04375016266228274 
222.14023781706 0.0352010126269308 
224.105914118239 0.04358196986193226 
224.109974645593 0.03355077665817931 
230.096737155551 0.26147547161217843 
231.09178461802 0.08675427476479035 
231.104964226198 0.1399563360212372 
232.075585284965 0.05512977196916791 
232.099260356172 0.1028617717609602 
232.111781292059 0.31455632235760544 
232.123469965771 0.06796236211660502 
232.135048833315 0.031178238822932348 
233.083557994725 0.07200405896616191 
233.107634914143 0.11642243828592995 
233.118522810372 0.06824070439274917 
234.091191922698 0.6195182810717493 
234.101584841138 0.3084879347962817 
234.115573651174 0.08788190392948698 
234.127229347437 0.10355371000134468 
234.138577703765 0.030151894039620198 
235.085059591438 0.03322759381276053 
235.122925618232 0.2534681496406248 
236.116037063926 0.04420076429584583 
236.143850060379 0.06554129670034138 
238.12222101454 0.046288616025921867 
242.095718189614 0.03637811823596008 
243.104103162969 0.03124625876749704 
244.098496628095 0.029102613874442074 
244.112527585275 0.05434446557849215 
245.106772211181 0.21090097553993034 
245.11945159564 0.05605006094413527 
246.091509053123 0.11673222860340333 
246.127553150654 0.07388191368922396 
247.123099783188 0.11897916404599658 
247.131846515305 0.03812234589375334 
248.106906891946 0.6910804679468551 
248.131109313588 0.07166675161252543 
248.141379264268 0.04265441530500263 
249.114197428844 0.3985827777512699 
249.138404130896 0.6085130932293451 
249.146891494482 0.2142782240748854 
249.164335792072 0.04551930475971528 
249.174169715446 0.035545937997475484 
259.123003988011 0.25500473889450376 
259.133203726703 0.062411484607810395 
262.120853152938 0.03111244192956507 
263.119148826526 0.05271873739367309 
264.13965888943 0.02824589874164458 
273.140154520948 0.03642653737545491 
275.153101089307 0.03363747565487835 
277.133354001785 0.0465887821583333 
END IONS

BEGIN IONS
TITLE=arborisidine.mgf
PEPMASS=281.1643401
CHARGE=1+
RETENTION_TIME=102.335
PRECURSOR_MZ=281.1643401
SMILES=C[C@@]1([C@@]2([H])CCN1CC3)C4=NC5=CC=CC=C5[C@@]43[C@H](C)C2=O
INCHI=InChI=1S/C18H20N2O/c1-11-15(21)13-7-9-20-10-8-18(11)12-5-3-4-6-14(12)19-16(18)17(13,20)2/h3-6,11,13H,7-10H2,1-2H3/t11-,13+,17-,18-/m1/s1
COMPOUND_NAME=arborisidine.mgf
IONMODE=positive
SKELETON=Arborisidinan
115.054416628173 0.04660662444438531 
117.057393222902 0.026933449208494026 
127.054470810129 0.030648824193122707 
128.062157300789 0.061336013755441086 
129.069877652267 0.04526167914470036 
130.065273840032 0.07513801824710174 
141.070072731738 0.026156458793723754 
143.073215414379 0.05315135371863621 
144.080772947351 0.07021135830665975 
152.061878744396 0.052716066783788304 
153.069896561693 0.03189495080099843 
154.065133222503 0.08212508189046705 
155.072912173809 0.040316681492646576 
156.08077539254 0.07287323895045006 
157.088984713739 0.024990507537518594 
158.09671714011 0.038019289834363715 
165.070135471233 0.041497558207851844 
166.065409952673 0.026562610340887267 
167.072967249384 0.22070662034536742 
167.082815667543 0.046854650983009206 
168.080909143678 0.18455511632940858 
168.089920499284 0.03242145167078127 
169.088693810379 0.047061795211627976 
170.09646649089 0.06581695943482453 
179.072849503767 0.03648863025923771 
180.080927610896 0.3563847237513636 
180.089743540506 0.053351342644096654 
181.088736657421 0.44049448538268643 
181.097780932608 0.06524395988140173 
182.096473295788 0.21397923308094408 
182.105436694324 0.03290514656865459 
184.11227501317 0.148308076431582 
184.121015503171 0.02694926997929636 
191.072850407073 0.027381177022200137 
192.080806427188 0.07602570731430189 
193.088773507344 0.14966449179009864 
193.098128274677 0.02993130549405031 
194.096593106633 1.0 
194.105646165397 0.12927407112299427 
194.128022966389 0.051027271413233495 
195.104393644852 0.18364855020613743 
195.113736648189 0.031762099473815544 
196.111985187619 0.1535421627137512 
196.121527991498 0.025279179074585587 
204.080877269117 0.10943442901759486 
205.088673185902 0.042173968072246264 
206.096552564306 0.08616297407479052 
207.06826953468 0.03487770544169794 
207.10416773011 0.072803267995947 
208.075644605854 0.035169605854260495 
208.112173879065 0.6807138331786013 
208.121678737441 0.10149560218527992 
208.145095718504 0.03479191371639254 
209.083596880521 0.08521779088824279 
209.107595745253 0.02763203691704954 
209.119929411485 0.1943222489657171 
209.129541508922 0.03304523230284982 
210.091532466498 0.09585204558970843 
210.127831178308 0.03552321805984134 
218.096593046195 0.09069339561922855 
219.103864583805 0.06280928708011134 
220.112314785591 0.07084235536759201 
221.083589816446 0.10737319831983413 
222.091587091233 0.41715273587870355 
222.101155331486 0.07178455418146568 
222.126798909095 0.06318733158969261 
223.099448813583 0.026968945265166903 
224.10719881298 0.14116783896181223 
224.117432327835 0.026680881389523913 
224.14296212588 0.039031315777551326 
233.107620623263 0.027106291129509547 
234.091086893467 0.057985893625451874 
234.127854051463 0.03093443225366161 
236.107111548513 0.5031450973229098 
236.116413764546 0.08279354541316301 
236.140580845518 0.030028114228841697 
237.115013692073 0.3093916050675367 
237.124942230098 0.057206504925653164 
238.122729883625 0.02485179173824966 
247.123077931374 0.0317926012007965 
END IONS

BEGIN IONS
TITLE=arboridinine.mgf
PEPMASS=295.1804105
CHARGE=1+
RETENTION_TIME=128.119
PRECURSOR_MZ=295.1804105
SMILES=C[C@H]([C@@]1(CC2)C([C@@]3(C)C[N@@]2C4)=NC5=CC=CC=C51)[C@@]4(O)C3=C
INCHI=InChI=1S/C19H22N2O/c1-12-17(3)10-21-9-8-18(13(2)19(12,22)11-21)14-6-4-5-7-15(14)20-16(17)18/h4-7,13,22H,1,8-11H2,2-3H3/t13-,17+,18-,19+/m1/s1
COMPOUND_NAME=arboridinine.mgf
IONMODE=positive
SKELETON=Arboridinan
103.054166829475 0.05958176459086749 
106.065249904974 0.04450822798200224 
107.073255910298 0.05088728144625496 
108.080729581373 0.32885724319735954 
108.087906297894 0.04678879802899199 
109.052392644504 0.033753700887835705 
109.065242460864 0.06803409357052036 
115.054199925833 0.10736149133190923 
116.06256933928 0.04575569812312243 
117.05744562748 0.08761674026577758 
117.069736626805 0.1118149392161677 
117.078014405238 0.030541496525475716 
118.065136948462 0.08763763717725652 
120.081103613972 0.09021640096220136 
123.068237792517 0.03743049595257958 
124.076722209518 0.07605022900514899 
127.054420696251 0.11641251918400156 
128.049960368246 0.033598530706549105 
128.062028781358 0.13466292880827932 
129.070532977224 0.19059318218215174 
130.065213225627 0.512715864977649 
130.07323756894 0.06823386427055038 
132.080285674604 0.04041240974645159 
134.09654609266 0.03693767319258815 
136.075694937499 0.16905492892337745 
136.083326459716 0.03128170947113596 
138.09183920268 0.033164129673119 
141.068412305167 0.03394884879480719 
142.065130320344 0.08766289743932643 
143.073017836509 1.0 
143.081213633613 0.17804074237339385 
143.090438462619 0.04347611867464523 
143.100564118016 0.03721020571193254 
144.080700868985 0.5758030746762689 
144.088143380217 0.09098045902919931 
146.096611948362 0.031552213622097515 
152.062370332242 0.03816292562421268 
154.064930484562 0.11184288824562881 
155.072849667812 0.1378757699839688 
156.080989936771 0.5272623324208033 
156.089482753294 0.08800203591580007 
157.08859210095 0.28905924038547487 
157.096581058048 0.041970621206685786 
158.096920486522 0.06598982844013046 
165.070185202652 0.03222152801707414 
166.065484623744 0.033207480150882304 
167.073036384848 0.2472812198324426 
167.081380572795 0.047577503130409225 
168.080580751915 0.18095715873704352 
168.087539686306 0.043658671829100056 
169.088711783972 0.06491132610243591 
170.096436737628 0.14240063530384603 
172.112366953651 0.2046318027878744 
172.120924982562 0.03905736532400473 
180.080633941874 0.4473127774707708 
181.088803644509 0.40511257326596317 
181.098749152187 0.05909990917155067 
182.096878947284 0.18756202149079887 
184.112908422342 0.04556380503983504 
191.073212611363 0.08379604897424703 
191.083218745685 0.029042650218957647 
192.08114250794 0.14810181277169226 
192.090377053711 0.029867181966578622 
193.088997025688 0.2868171857520801 
193.098906825274 0.04960929143667681 
194.096354832651 0.6667228005823775 
194.105748159108 0.10526321499690675 
195.104468955698 0.35299694966415174 
195.114177738648 0.07411323154226046 
196.07689551344 0.04677469379302765 
196.112431048372 0.23075522994739683 
196.121838037347 0.03662473840533923 
204.080931586714 0.2081043458736029 
204.090274268185 0.03025769005163141 
205.08862430431 0.11748387506099847 
206.096570845047 0.43632303040123255 
206.106348284107 0.07580210766343519 
207.104417874806 0.30191249194254244 
207.114658963668 0.06763143886084944 
208.112085173091 0.43925378685763516 
208.122612069261 0.07440444391927 
209.083771594531 0.046815355503399755 
210.091100875156 0.08106402544800408 
210.127555277952 0.10592203376478616 
217.088115694414 0.07539169326541602 
218.096880899357 0.37123056628507395 
218.106594493097 0.03217088956453997 
219.103338659575 0.07815020350903013 
220.112562335548 0.3092662707574611 
220.122378519268 0.045994314436251564 
221.120307916175 0.09878300255598 
222.090923928068 0.09657981712136317 
222.127307644816 0.17247020598080928 
223.09835584546 0.05513949631839346 
224.106427475428 0.08293632739375183 
230.0964601288 0.05463811195697217 
231.104228752701 0.0365331552142865 
232.099228635025 0.07244959209747678 
232.111954124509 0.09279613175997987 
233.107739740038 0.0856370527241341 
233.119535084318 0.07222854711510589 
234.113844271187 0.047302564871820094 
234.127934554172 0.10407654873591375 
234.133262148366 0.030972737077937226 
235.122870388349 0.16587074434751517 
235.133999060856 0.05351066933562208 
236.106662562871 0.11509200419542055 
236.144338667768 0.03812054215928305 
238.12136700371 0.05087876701618284 
244.111381631363 0.06711017177214064 
245.108084937731 0.04121302561569825 
245.120881345242 0.04632873577695117 
246.114008501889 0.06227296130698624 
247.123197817558 0.16755789871413238 
247.135115648299 0.03222402809903437 
248.142672673813 0.03731162413107411 
250.122389458199 0.05539058945564489 
260.130977722897 0.04503565093289615 
261.139001508536 0.23935265802345876 
261.149838032491 0.0367785170315725 
295.180133012494 0.039812956132288295 
END IONS

BEGIN IONS
TITLE=Leuconolam.mgf
PEPMASS=327.1702393
CHARGE=1+
RETENTION_TIME=1086.98
PRECURSOR_MZ=327.1702393
SMILES=O=C1C=C2C3=C(NC(CC[C@]4(CC)[C@@]2(O)N1CCC4)=O)C=CC=C3
INCHI=InChI=1S/C19H22N2O3/c1-2-18-9-5-11-21-17(23)12-14(19(18,21)24)13-6-3-4-7-15(13)20-16(22)8-10-18/h3-4,6-7,12,24H,2,5,8-11H2,1H3,(H,20,22)/t18-,19-/m1/s1
COMPOUND_NAME=Leuconolam.mgf
IONMODE=positive
SKELETON=Rhazinilam
124.074447212659 0.03530536868487007 
184.074302748866 0.1053862834235782 
239.116704227092 0.056094150652626434 
240.104674103131 0.04171524768274988 
251.083139627721 0.033929094237519344 
253.131640136501 0.029929123193091847 
280.119722763871 0.240002606001525 
281.133854345474 0.14497402041689592 
291.147452837925 0.033007341846271646 
309.158977587299 1.0 
END IONS

BEGIN IONS
TITLE=rhazinilam.mgf
PEPMASS=295.1809448
CHARGE=1+
RETENTION_TIME=226.061
PRECURSOR_MZ=295.1809448
SMILES=CC[C@]1(CCC2=O)CCCN3C=CC(C4=CC=CC=C4N2)=C13
INCHI=InChI=1S/C19H22N2O/c1-2-19-10-5-12-21-13-9-15(18(19)21)14-6-3-4-7-16(14)20-17(22)8-11-19/h3-4,6-7,9,13H,2,5,8,10-12H2,1H3,(H,20,22)/t19-/m1/s1
COMPOUND_NAME=rhazinilam.mgf
IONMODE=positive
SKELETON=Rhazinilam
103.054067146322 0.06242704743609816 
105.069221271341 0.04357648020480958 
106.064762783321 0.09354000758771165 
107.085048615105 0.02490127472383134 
108.080381723909 0.038320559121701854 
109.064676319923 0.04050295856253324 
109.100849760641 0.06043758931246771 
115.053887218125 0.35923528297649393 
115.060740277661 0.030748280890752787 
117.069101911532 0.09100351884526052 
117.076224975404 0.02890252018747629 
118.064796972305 0.13569109452447506 
119.085264103347 0.039049929370952904 
120.080505687505 0.06834112334487909 
127.053841624459 0.19654430748644444 
127.061233621446 0.04663012954815588 
128.04951064724 0.05108664943892567 
128.061460422919 0.029076345631407263 
129.056889499607 0.040042629570145 
129.069530130058 0.056084207180883666 
130.064798523268 1.0 
130.072268251663 0.20200892582278882 
130.086602703759 0.04770453544616507 
132.080320270065 0.16221665555483236 
132.088428369625 0.03320634177891379 
137.095710520327 0.0939094834081843 
140.048542407014 0.03294777320599582 
142.064652746552 0.11111623213237566 
143.072465524664 0.16475378931141224 
143.080369824685 0.03569494115418828 
144.08029048873 0.38156907309710575 
144.088386367685 0.13685786644572 
154.064675116001 0.46915313749531634 
154.072603444083 0.172862144648523 
156.080211063016 0.08819665190757064 
157.075866245898 0.06915870807188272 
158.08372449595 0.10711667543299506 
158.093201324893 0.029750315030764245 
159.09118785874 0.024750898475362514 
166.064420717537 0.03514014104699866 
167.072678990998 0.4644547373062686 
167.081207940518 0.042194244245741 
168.080252331289 0.13863622903630785 
168.088526371191 0.03568336608245978 
169.08475487504 0.0533565362506736 
170.095752770989 0.04472886831098359 
171.091222392792 0.2552163758532511 
171.099506912959 0.05788411910713626 
180.080324701843 0.146900677792574 
180.088407859894 0.03554858158461208 
181.075598368387 0.06620395698576689 
181.087801121 0.05387635900079102 
182.083568277752 0.165226056928947 
182.095125733364 0.07323842243617146 
183.091136067242 0.134719996434831 
183.100474597655 0.034315801262937665 
184.098754852263 0.03283383439203607 
191.072335044861 0.02790780285319068 
192.079866569761 0.05407597328234204 
193.087895373666 0.05672326372458131 
194.083545907556 0.02774657277606458 
194.095925214652 0.1007137374522763 
194.105552510277 0.02491083852423113 
195.091328634288 0.3722891375516085 
195.100243247222 0.0796048877997923 
196.109681118886 0.026557970058444146 
197.106829527045 0.061944928693688076 
204.079941632167 0.057267555965237256 
205.075075317212 0.026110863855695093 
205.087792871644 0.027687565710814366 
206.083003916986 0.08343117024913378 
206.095437435695 0.09197537922432947 
207.091534077503 0.10890213317899905 
207.102631064106 0.05138902619871478 
208.099014628929 0.06704540723553395 
208.110653652661 0.05369680465864387 
209.106917225746 0.4624302138690938 
209.115702233543 0.20852820089727328 
218.095526947857 0.029135739705134726 
219.09108600867 0.24620535256179088 
219.101123783697 0.07152086708662951 
220.098584009126 0.11394297723276038 
220.110309288574 0.06843089758407025 
221.106618124527 0.119728871242866 
221.116133251799 0.03820066272269846 
222.114799642147 0.08473415742683928 
222.125578575608 0.039769084941910615 
223.122404469552 0.42541854087249303 
223.130883687375 0.09519212332201041 
225.138325193034 0.0683500949050334 
230.095590728538 0.042596516102777725 
232.099000138685 0.05398517288430968 
232.10964469336 0.03279364414805068 
233.106676410219 0.12046964065090135 
233.116995168207 0.02537303219382792 
235.122424880303 0.026771387642350222 
237.102174923166 0.10779763444000166 
237.138080521124 0.22200805798559745 
237.14799218999 0.04738388133147335 
246.115164468764 0.029392250096605527 
247.122590399272 0.39159757685783125 
261.138278700165 0.06162242162931742 
265.13300612392 0.14618025564841805 
265.142885388722 0.04130149778144458 
END IONS

BEGIN IONS
TITLE=Cymoside.mgf
PEPMASS=547.227967
CHARGE=1+
RETENTION_TIME=621.026
PRECURSOR_MZ=547.227967
SMILES=C=C[C@H]([C@H](O[C@@H]1[C@@H](O)[C@H](O)[C@@H](O)[C@H](CO)O1)O[C@](O2)([H])[C@@]34C(OC)=O)C3C[C@@]5([H])[C@]64NC7=CC=CC=C7C6[C@H]2CN5
INCHI=InChI=1S/C27H34N2O10/c1-3-11-13-8-17-27-18(12-6-4-5-7-14(12)29-27)15(9-28-17)37-25(26(13,27)24(34)35-2)39-22(11)38-23-21(33)20(32)19(31)16(10-30)36-23/h3-7,11,13,15-23,25,28-33H,1,8-10H2,2H3/t11-,13?,15+,16-,17-,18?,19-,20+,21-,22+,23+,25+,26?,27-/m0/s1
COMPOUND_NAME=Cymoside.mgf
IONMODE=positive
SKELETON=Cymosidan
106.063479919598 0.02761879484509656 
107.048218644347 0.08814853126992014 
109.028825265821 0.07773968236684566 
109.056715632268 0.02457254272122825 
110.053927264604 0.030409030381808578 
115.053760655645 0.0358433112609823 
116.048353952408 0.04857704793080216 
117.056000626011 0.04843213716162723 
118.066630477397 0.08334909929835786 
129.068962736856 0.19076645274860887 
130.065454058578 0.16932823378090528 
132.070225727026 0.07397200236829748 
138.056759811066 0.05959058397588149 
139.052708977588 0.12071171422543743 
143.08324331656 0.04063989401641929 
144.043388393412 0.07678428757120205 
144.078835397215 0.110763866676648 
152.065033042568 0.0291575847902673 
154.064079505655 0.17084902557262213 
155.069026871146 0.03226918740628325 
156.079880781069 0.4166638310614465 
160.072356741145 0.0345943836868766 
165.068571234525 0.030404361841373975 
166.063070095653 0.495191494091733 
167.072250086521 0.7783200967281654 
168.079953737397 0.3495569423555486 
169.078030719366 0.09391624302724677 
170.056618611737 0.03442671094747779 
171.08245071579 0.03147521794461723 
180.079610339541 0.23023494690612786 
181.086294934792 0.3828640066421217 
182.081453789202 0.27193086567624647 
183.083772362478 0.030046912252763583 
184.071812353121 0.11257561424880283 
186.053911538548 0.02823128557266749 
190.05853381054 0.046336239261563036 
191.070733777893 0.08736853567077944 
193.084956809776 0.04329725989796359 
194.061692514328 1.0 
194.167356982293 0.03005408066276034 
196.100754027571 0.04627880124222194 
204.083473860974 0.03914681856436711 
206.093200797174 0.09166849279642851 
207.103427754336 0.04945418002236726 
208.103770456955 0.14926625879321181 
209.103315017978 0.4352054225845748 
210.076776274999 0.034013574609310315 
210.117995140466 0.08651118476123071 
214.083227799973 0.05539978630879061 
217.081947998834 0.055126978401762165 
218.086853663425 0.06841866236562068 
219.081896575287 0.043360237555662935 
220.073992388312 0.09349049391705969 
221.076833199301 0.06377276140310284 
222.082257996601 0.048463079285790446 
224.074975404348 0.04191024515508492 
225.074005200665 0.0726114562987866 
226.084055435994 0.05796848168085604 
232.11088455694 0.03068124848295121 
234.094942446625 0.02591743171295509 
235.08129040804 0.043187619520760036 
235.116638596355 0.03432561821865012 
236.100885377727 0.028986559231256086 
237.103560468676 0.1910457031506977 
238.086724417932 0.025415125798789993 
240.09965752373 0.039096453678687366 
246.087179028974 0.03299294274572788 
248.102302927123 0.028657520138468277 
261.127325648736 0.06370584111990527 
264.095539999186 0.05259258251044071 
269.125789038522 0.08942704895162004 
276.088255409891 0.06099790618910539 
END IONS

BEGIN IONS
TITLE=mersilongine.mgf
PEPMASS=445.163531
CHARGE=1+
RETENTION_TIME=335.049
PRECURSOR_MZ=445.163531
SMILES=COC(N1c2c([C@@]34CCN[C@]1(C(OC)=O)[C@]3([H])CCC(C(OC)=O)=C4)ccc5c2OCO5)=O
INCHI=InChI=1S/C22H24N2O8/c1-28-18(25)12-4-7-15-21(10-12)8-9-23-22(15,19(26)29-2)24(20(27)30-3)16-13(21)5-6-14-17(16)32-11-31-14/h5-6,10,15,23H,4,7-9,11H2,1-3H3/t15-,21+,22-/m1/s1
COMPOUND_NAME=mersilongine.mgf
IONMODE=positive
SKELETON=Mersilonginan
103.054771285916 0.25638379440446907 
103.061527626235 0.05566494245487148 
104.050515060902 0.03346039271887308 
105.070566829405 0.17567835820764133 
105.077205588107 0.0390385069077042 
106.06453950147 0.03542623624753296 
115.055294247507 0.03860242892027838 
117.058230935302 0.06369313490226042 
117.070965396236 0.03471769699765312 
118.065843638736 0.04664883474856026 
119.086723853683 0.17251654521478407 
121.064997991073 0.04301090338017109 
130.065936030015 1.0 
130.073845452878 0.17965832084776287 
130.084323240714 0.05085041259601858 
130.092906412001 0.06331896392359711 
131.049232696386 0.12291888575306915 
131.07382207796 0.3512443022664171 
131.082253325201 0.0679998644339943 
132.081939648053 0.22061448373119902 
132.089922207324 0.05126063180801036 
144.081628810463 0.036469134965641935 
146.059676746788 0.05404506073180995 
147.067486927957 0.06716195208005789 
147.070647615251 0.05680061585699722 
150.0551928566 0.04241692180658428 
158.060941294613 0.5770688340795332 
158.070797851012 0.12127765678560676 
158.081306797966 0.033079786756433666 
162.056413434422 0.07912331928963412 
162.092882385404 0.23700238913077543 
162.101361012666 0.033165796344647516 
163.076662109566 0.123221708519003 
164.04900473813 0.032351321944615125 
165.06985416254 0.0478005736026578 
166.065830867709 0.08771503497426886 
166.076581244847 0.03727448947074679 
167.073716788841 0.08312176820325745 
168.080687394174 0.05946417976404472 
175.063400061327 0.11308920595293218 
176.035289390722 0.16463677113465225 
178.066230716645 0.03889853500683992 
180.082561138928 0.06562292579609816 
182.061940865263 0.11350263825531832 
182.095604363415 0.04653963369008906 
184.039323023253 0.039886824392725916 
184.078025353737 0.031522780370746614 
188.072256188094 0.05497144310893344 
190.066836409091 0.06100509869029153 
190.087350865179 0.6812680351203985 
190.097182272815 0.15651768784254624 
190.110072724864 0.03845440228595976 
190.120091240221 0.03520439216252427 
191.073596268278 0.03299223664542799 
192.081943618618 0.07535964604948335 
193.052917476193 0.033612869263313194 
193.066358794303 0.05118105280207891 
194.060814968831 0.07367475426460723 
194.098139074709 0.04172108966899007 
195.068097854475 0.03386789620925757 
196.075561538292 0.1244315470898204 
197.084920809651 0.05968020507439404 
198.05748631225 0.048466035433784804 
204.081570002975 0.032180363528166916 
206.061025443806 0.03921824190257205 
207.056323934755 0.03874915711395819 
207.068606912205 0.03797981122873858 
207.093484646572 0.1509352733943791 
207.103360789949 0.03088073888754888 
208.076276681482 0.09244034655600725 
208.100412642744 0.06799255795446742 
209.086145055728 0.04109248154453695 
210.054608924546 0.07738750222275431 
210.091458154632 0.05475352515629704 
212.073144627673 0.07216301724153108 
218.06041630862 0.0498105156966068 
218.082443333303 0.11784972948419775 
219.093725531608 0.05497254348235617 
220.040658605487 0.03566543102067117 
220.076822686218 0.16751534800850015 
220.085921483143 0.04532504150608551 
221.08363209582 0.049032111537371324 
222.056700535964 0.0767744621814859 
222.09455012251 0.06423068932672991 
224.071908723049 0.24096025627256867 
224.079822737666 0.04834098899802637 
224.10701553627 0.039764520087536906 
234.057200574038 0.042413567868391816 
235.087622253899 0.23548176109044366 
235.093225762561 0.06650855034164393 
236.07220508274 0.11266846717101914 
236.095509751692 0.03829418791561104 
237.068377470065 0.039085550072272525 
237.07956352907 0.04337697120894947 
237.104310419493 0.23413776499192762 
237.114413490354 0.03689325849620327 
238.052597489758 0.040822366278220175 
238.087678811324 0.20993870479886054 
240.067389150743 0.11268224384627167 
240.103097206394 0.043470929894769084 
241.074465859392 0.09475579632704154 
247.087001663255 0.08668442522654488 
248.072699128332 0.1132724401352843 
249.077923042899 0.06422655192266047 
249.104399206698 0.09674364292266223 
250.051645484576 0.09397739216780607 
250.060838623274 0.0335869928819044 
250.076859973024 0.06619124666146703 
250.087111041221 0.11501459535307902 
250.109841671338 0.10135227090665488 
251.060534644581 0.032646186809955825 
251.084721294783 0.04945720779803834 
252.067493254091 0.055537959361889044 
252.103196014718 0.05073760231272085 
253.073147320985 0.034248343717924117 
254.081635219353 0.056591720966427166 
254.085232914502 0.049407558949205004 
256.097565508449 0.03487206618438033 
263.084013630421 0.15236769550114526 
263.094248913107 0.03200216905609087 
264.066731512373 0.04382847643176188 
265.062803833385 0.11440767338804096 
265.0731007037 0.049580933785689514 
265.098481183536 0.3171603675423291 
266.081658485354 0.13629546522908012 
267.11535991662 0.1311801813063281 
268.09556843886 0.03744715566674707 
275.084672399929 0.04176176387218766 
276.067036561316 0.08698561943981309 
277.100920088056 0.037312461156818175 
278.069736673581 0.08589255249661525 
278.081674934724 0.034194447427679055 
279.08121475589 0.04338192729084542 
282.07886865988 0.12680241166642311 
284.09381675139 0.15640263279746613 
284.101179654673 0.035560486206599067 
291.078468334251 0.04414702573465331 
292.061419635145 0.04278337256531376 
293.093780943344 0.952545735920942 
293.121157097035 0.05040599377804852 
293.130139155512 0.050636940152009986 
294.102690916028 0.03707094239501117 
295.109902995822 0.3079859821228932 
295.120872936076 0.08659753974108654 
296.093929591179 0.08786235296810326 
298.072491553948 0.06462413884775937 
298.109523405902 0.035690611966076806 
300.086536874494 0.04828883129778922 
300.09247375941 0.03846355299134314 
321.087955579669 0.11499575696008196 
321.098368333192 0.04105427217780626 
325.120821763706 0.1656813336173764 
353.117658996395 0.03687869835507378 
END IONS

BEGIN IONS
TITLE=eripine.mgf
PEPMASS=413.2073022
CHARGE=1+
RETENTION_TIME=153.31
PRECURSOR_MZ=413.2073022
SMILES=C/C=C(C(OC)=O)\[C@@H]1C[C@H]2[C@@]34[C@@](CCN3C)(C5=CC=CC=C5N4C)[C@]1(CO)C(O2)=O
INCHI=InChI=1S/C23H28N2O5/c1-5-14(19(27)29-4)16-12-18-23-22(10-11-24(23)2,21(16,13-26)20(28)30-18)15-8-6-7-9-17(15)25(23)3/h5-9,16,18,26H,10-13H2,1-4H3/b14-5+/t16-,18-,21-,22-,23+/m0/s1
COMPOUND_NAME=eripine.mgf
IONMODE=positive
SKELETON=Isocoryman
103.05425032825 0.10326530099664052 
105.070152458542 0.028291472027507036 
107.049116069979 0.07091037190717343 
109.028640440576 0.06279978348322172 
119.049111609524 0.06110786779596288 
121.06500138851 0.4293469108201394 
121.072255441678 0.048290615491769044 
123.043977652039 0.16797577098681613 
123.051556804506 0.029925500711150067 
131.049780761905 0.028203638473653318 
131.072939997447 0.06489726562235855 
132.080917519695 0.041765423197885836 
133.064849188703 0.029802478350737217 
135.043923999211 0.10206454093387513 
144.080957150212 0.3773349051515473 
144.088722532133 0.05502868589707467 
147.044335226781 0.04077155193649528 
149.059516028961 0.09700676180224135 
156.080583212481 0.05586506406468713 
157.088584306014 0.0344553414824444 
158.096421436952 0.09078705652137653 
167.073211179661 0.09066034719321933 
168.081198418236 0.05056339765186846 
169.088831348431 0.05368601782689155 
170.096619297922 0.07942443374454562 
171.091617106619 0.04482486581208443 
171.103428503189 0.02790297510926466 
172.099743976156 0.10349923829500443 
177.055270379479 0.04242904519127635 
180.080488368015 0.04872715891281786 
181.088673874504 0.24777633984246825 
181.096857051374 0.03369659894130895 
182.096377015483 0.25926715317467247 
182.106023940553 0.09764719936964122 
184.076004070634 0.044761301844160085 
186.114851192282 0.05228616150593151 
194.096397631701 0.1806140846031905 
194.104634694023 0.029132020171738635 
196.112166472484 0.13506522068836493 
197.107573550245 0.23268611217462512 
197.116463323278 0.050394344545686684 
198.091163654743 0.024931552812351376 
199.123322716611 0.0865313297266524 
204.081066224927 0.06051975619000024 
205.088428105484 0.1299068469084051 
205.09755198028 0.025057882173527057 
206.096050232314 0.07955413772772661 
207.104308290365 0.10383061458371236 
208.111954058452 0.14357503204763883 
208.121546019489 0.03920318991941158 
209.082791663952 0.03721142232267376 
210.091520228311 0.04675155601309019 
211.12334154626 0.07592323121345032 
217.08854622062 0.30638637554326426 
217.098437407327 0.056028353264962895 
218.096256941613 0.2555500134759476 
218.106084008854 0.042349252125158554 
219.104371375164 0.2172547836393946 
219.115127675479 0.03056953186457848 
220.111883460193 0.22805302664631158 
220.122240625061 0.04081257549026206 
221.083791039918 0.02627998800849967 
222.091587117146 0.024653854909930117 
222.127894563526 0.23235447828118394 
222.138277944234 0.034135847212056675 
224.107427361068 0.09115275864078727 
231.103931187462 0.11594750401943885 
232.112069704273 1.0 
232.146531642947 0.08800486100131605 
233.128247436503 0.03375835967610069 
234.091567700773 0.10949627648458413 
234.127721190724 0.16991186376058476 
235.099283314189 0.10353868401978018 
236.106405487164 0.07381354505007676 
238.086306744946 0.05378915632195826 
243.104516930833 0.02491203281369092 
244.111611224599 0.03622676043049615 
245.120118856395 0.030077407002276263 
246.090696669457 0.02915803180967647 
246.127873654443 0.031707082165927714 
248.106998995325 0.030964034193164267 
248.143195684887 0.08730865200917202 
249.114237493595 0.03541707655336459 
250.122765138362 0.1406517013343603 
252.101667032728 0.05588245238418011 
258.127816726274 0.06960811557951566 
260.10679808155 0.15952495111145173 
262.122921588662 0.04392518128128087 
276.138239903755 0.07527867197031879 
278.117393521813 0.1342390501083067 
288.102612922386 0.03078828980403686 
292.133185731351 0.08755138006905738 
END IONS

BEGIN IONS
TITLE=lyaline.mgf
PEPMASS=346.1548269
CHARGE=1+
RETENTION_TIME=238.67
PRECURSOR_MZ=346.1548269
SMILES=O=C(OC)C1=CN[C@H]2[C@](C=C)([H])[C@@H]1CC3=C4N2C5=C(C4=CC=N3)C=CC=C5
INCHI=InChI=1S/C21H19N3O2/c1-3-12-15-10-17-19-14(8-9-22-17)13-6-4-5-7-18(13)24(19)20(12)23-11-16(15)21(25)26-2/h3-9,11-12,15,20,23H,1,10H2,2H3/t12-,15-,20+/m0/s1
COMPOUND_NAME=lyaline.mgf
IONMODE=positive
SKELETON=Nacycline
104.049506847796 0.3348678937215555 
104.056504841168 0.031748890195358676 
105.057290454112 0.05264922543626036 
115.054330339712 0.12435123107461474 
134.060193230508 0.06063632190417172 
142.065174524853 0.03579034663883802 
154.065265631134 0.049857027745433935 
164.070874382489 1.0 
164.079486102752 0.06748760914191639 
164.100963761001 0.029491153565256684 
168.068521775368 0.042824471356591794 
181.076298241881 0.0761394651320215 
182.084018436071 0.20825918034044608 
182.09344315147 0.026010862161267446 
183.091864837915 0.480778009824521 
183.100757011941 0.04524859920676467 
206.083768181778 0.040359715310154 
217.075983058196 0.025263362692167977 
218.083986205002 0.059370002276196286 
219.091599540998 0.043186395043402444 
230.084208967781 0.0320376746514389 
243.091901333662 0.12199930993527888 
244.099760123605 0.05767273129566434 
245.107593039439 0.20985052553854083 
245.118279455941 0.024869966458954923 
269.107621985328 0.031557003033656765 
270.102966781635 0.03807701257926949 
299.105712584926 0.028686049799105544 
END IONS

BEGIN IONS
TITLE=Pauridianthinine.mgf
PEPMASS=316.1079143
CHARGE=1+
RETENTION_TIME=154.342
PRECURSOR_MZ=316.1079143
SMILES=O=C(C1)C2=CN=CC=C2C1(O)C3=NC=CC4=C3NC5=C4C=CC=C5
INCHI=InChI=1S/C19H13N3O2/c23-16-9-19(24,14-6-7-20-10-13(14)16)18-17-12(5-8-21-18)11-3-1-2-4-15(11)22-17/h1-8,10,22,24H,9H2
COMPOUND_NAME=Pauridianthinine.mgf
IONMODE=positive
SKELETON=Pauridianthinane
102.042246759204 0.036022280092519454 
115.063049929476 0.37450108774309293 
115.070431903737 0.04525089621588749 
140.058569155262 0.17493241888939748 
142.074492228301 0.02603268613019502 
167.069756203141 0.2542862031914713 
167.07868814364 0.03965691164877184 
189.079495286473 0.03226253343669441 
214.074799930996 0.06694615779111945 
215.082508111957 0.047328438763235975 
216.090075044823 0.06201801303572959 
217.085416427804 0.028390486500586273 
218.093204201164 0.0486599667320214 
229.085799932661 0.04348285556637078 
230.093458920497 0.03358344557884943 
241.085501468073 0.0853065332577419 
242.093534165089 0.6633819951030707 
242.103728763449 0.07621564484701457 
242.125667204037 0.025392324302382217 
243.101375318661 0.5430473033651917 
243.111886517566 0.06873555647278544 
253.085513780208 0.03085328245150779 
255.088916439601 0.04578565584450543 
267.088732901393 0.050123383708800796 
268.096414582047 0.48970884073403886 
268.10670962377 0.06591237848353927 
269.104336923607 1.0 
269.115232930307 0.10858378048290385 
269.141896757037 0.04644590970936141 
270.112161055658 0.8270373477418747 
270.123110097779 0.09582833399513745 
270.146164663881 0.038217557212354696 
271.096152614342 0.05812713564524131 
280.096545227395 0.08567497826915013 
281.103831383714 0.07419717179213099 
296.090908222577 0.0994591741847361 
297.099031406153 0.06975346259197539 
298.10698648544 0.25464511923468985 
298.118131583906 0.04304783415652328 
END IONS

BEGIN IONS
TITLE=Geissolaevine.mgf
PEPMASS=367.1287227
CHARGE=1+
RETENTION_TIME=1392.909
PRECURSOR_MZ=367.1287227
SMILES=O[C@]1(C2=NC=CC3=C2NC4=CC=CC=C34)OC(C(CC)=C1CC(OC)=O)=O
INCHI=InChI=1S/C20H18N2O5/c1-3-11-14(10-16(23)26-2)20(25,27-19(11)24)18-17-13(8-9-21-18)12-6-4-5-7-15(12)22-17/h4-9,22,25H,3,10H2,1-2H3/t20-/m0/s1
COMPOUND_NAME=Geissolaevine.mgf
IONMODE=positive
SKELETON=Geissolaevan
167.06100508579 0.08140584262149625 
261.103049959514 0.36185990439112836 
262.106796154225 0.06801745006574315 
263.117635225388 0.03763567040336399 
275.081921954688 0.02704993586425726 
289.097815777982 0.592629822638149 
290.101502885849 0.12134180332348525 
317.09310130165 0.13406929232074943 
318.095884633257 0.028175291504184092 
321.124222374952 0.3476200334984681 
322.127653763788 0.0788265248714874 
323.137694154534 0.03478747761678653 
349.118708282686 1.0 
349.284558111209 0.05698835912158144 
350.122518628114 0.24343053890098018 
351.124597088909 0.02832271048257726 
END IONS

BEGIN IONS
TITLE=O_methylgeissolaevine.mgf
PEPMASS=381.1446092
CHARGE=1+
RETENTION_TIME=1698.12
PRECURSOR_MZ=381.1446092
SMILES=COC(CC1=C(C(OC1(C2=NC=CC3=C2NC4=CC=CC=C34)OC)=O)CC)=O
INCHI=InChI=1S/C21H20N2O5/c1-4-12-15(11-17(24)26-2)21(27-3,28-20(12)25)19-18-14(9-10-22-19)13-7-5-6-8-16(13)23-18/h5-10,23H,4,11H2,1-3H3
COMPOUND_NAME=O_methylgeissolaevine.mgf
IONMODE=positive
SKELETON=Geissolaevan
167.060678402224 0.10095286226508407 
261.102204291546 0.3945079129574679 
262.106957449011 0.10090399357072205 
264.066035479859 0.03375627472799209 
289.097333037128 0.5584279179030662 
290.100690908107 0.11458197329376855 
292.07869140629 0.032141104104846684 
307.107853517969 0.029652973541048466 
317.092102266446 0.14728100272007913 
318.095365609736 0.02968265640454995 
320.05577810032 0.04556914564787339 
321.12309203755 0.5170487141444116 
322.129000052462 0.18892226137487636 
323.133233888875 0.028701032393669633 
349.11828756904 1.0 
350.120988869557 0.2376495734421365 
351.12365010251 0.030822205736894162 
381.144244304973 0.17109931379821958 
382.147330706658 0.04975253461918892 
END IONS

BEGIN IONS
TITLE=9MeO_ellipticine.mgf
PEPMASS=277.1343221
CHARGE=1+
RETENTION_TIME=173.509
PRECURSOR_MZ=277.1343221
SMILES=CC1=C2C=CN=CC2=C(C)C3=C1NC4=CC=CC(OC)=C43
INCHI=InChI=1S/C18H16N2O/c1-10-13-9-19-8-7-12(13)11(2)18-16(10)17-14(20-18)5-4-6-15(17)21-3/h4-9,20H,1-3H3
COMPOUND_NAME=9MeO_ellipticine.mgf
IONMODE=positive
SKELETON=Pyridocarbazole
182.096103823018 0.026385980019187277 
207.091302601123 0.03034974406723655 
218.083456002163 0.18909481980294343 
218.093194832586 0.042459638537197156 
219.0913552594 0.4001710517749462 
219.100969787239 0.0722313872943847 
231.091181631299 0.041141170227532636 
232.099381071845 0.06187891622578096 
233.1069578559 1.0 
233.116736948924 0.13977061250661788 
233.138702510787 0.03323497907456383 
234.114776770441 0.4975267817330216 
234.124504138452 0.09456116774620707 
247.08644312567 0.032187663144085166 
261.101649179178 0.07743215969909627 
262.109573339459 0.02764484123815689 
END IONS

BEGIN IONS
TITLE=Ellipticine.mgf
PEPMASS=247.1235446
CHARGE=1+
RETENTION_TIME=159.451
PRECURSOR_MZ=247.1235446
SMILES=CC1=C2C=CN=CC2=C(C)C3=C1NC4=CC=CC=C43
INCHI=InChI=1S/C17H14N2/c1-10-14-9-18-8-7-12(14)11(2)17-16(10)13-5-3-4-6-15(13)19-17/h3-9,19H,1-2H3
COMPOUND_NAME=Ellipticine.mgf
IONMODE=positive
SKELETON=Pyridocarbazole
203.072744494074 0.0292200539915795 
204.080643612481 0.28606281790658605 
204.090198823344 0.040457077356872415 
229.075787757401 0.029305505459824972 
230.083673045187 0.04422801938528777 
231.09171534977 1.0 
231.100778356559 0.10961081587413725 
231.126865869374 0.04045411647488571 
245.107155683304 0.11040166124114376 
245.117188823179 0.02922711455631701 
END IONS

BEGIN IONS
TITLE=Olivacine.mgf
PEPMASS=247.1228274
CHARGE=1+
RETENTION_TIME=1305.96
PRECURSOR_MZ=247.1228274
SMILES=CC1=C(C=CN=C2C)C2=CC3=C1NC4=C3C=CC=C4
INCHI=InChI=1S/C17H14N2/c1-10-12-7-8-18-11(2)14(12)9-15-13-5-3-4-6-16(13)19-17(10)15/h3-9,19H,1-2H3
COMPOUND_NAME=Olivacine.mgf
IONMODE=positive
SKELETON=Pyridocarbazole
139.052288978482 0.02522068282351946 
151.052414840699 0.104721898172773 
152.058990172134 0.07039962271095807 
163.05235391695 0.08157111904057149 
164.056336483064 0.06104093732137886 
166.063895121849 0.036853380932562206 
167.070839356906 0.06563183651507144 
176.059838761402 0.14765771691077562 
177.063951753084 0.0962464682978539 
178.069921306447 0.08580144808446992 
179.072767610115 0.03919509299579519 
180.078178877213 0.038199616832198684 
189.057519544993 0.030492469664946287 
190.063373522442 0.15744130180446084 
191.070657053471 0.26396078979821813 
192.074247713068 0.06442845072410777 
202.06314387463 0.06620318078327167 
203.071056872378 0.2370076141167361 
204.07888355257 0.9847846848208 
205.084203718827 0.40869565868596996 
206.089962906753 0.09201110299193281 
216.070212919952 0.06205075466233361 
217.080186872279 0.06791367509894196 
218.088571146706 0.030110275416132853 
229.074447632029 0.08664280339687448 
230.081264026949 0.0757685588595806 
231.089809018963 0.3386916165708373 
232.09733923364 0.6163388696643471 
233.100640484233 0.14868736102303895 
245.105317787546 0.09677990018465671 
246.111655626611 0.07923056775148499 
247.121438085712 1.0 
248.12446676398 0.28482345842172535 
249.12822354894 0.029059531425432526 
END IONS

BEGIN IONS
TITLE=lirofolineA.mgf
PEPMASS=325.1911316
CHARGE=1+
RETENTION_TIME=378.319
PRECURSOR_MZ=325.1911316
SMILES=CC[C@H]1CC2C[C@]3([H])[C@@]1([H])N(CN4C3=C(C5=C4C=CC(OC)=C5)C=O)C2
INCHI=InChI=1S/C20H24N2O2/c1-3-13-6-12-7-16-19(13)21(9-12)11-22-18-5-4-14(24-2)8-15(18)17(10-23)20(16)22/h4-5,8,10,12-13,16,19H,3,6-7,9,11H2,1-2H3/t12?,13-,16+,19-/m0/s1
COMPOUND_NAME=lirofolineA.mgf
IONMODE=positive
SKELETON=Lirofolan
103.054380188616 0.040282158789055424 
105.070264219828 0.15642416443825116 
106.065565176136 0.07082217985439423 
107.073430031034 0.2036531192230224 
107.085841716926 0.05779052689114318 
108.081236857153 0.06267230172460775 
110.097112399082 0.048155608503939094 
115.05497158761 0.045085719602052536 
117.057699363379 0.34175251396507916 
117.064753954011 0.048763910637175195 
117.070683813556 0.06317254081323884 
119.086030315372 0.14260570807289547 
121.08912649365 0.15682184738779995 
122.097045650246 0.5552104333398777 
122.10452903884 0.08901351825590488 
124.112807116047 0.05094866993979801 
130.065894011038 0.11365730811968706 
131.073719084708 0.14120310037640782 
132.044930083442 0.12473825096576073 
133.053202335444 0.08771241776411427 
135.105147333753 0.057343110769979416 
136.076104678851 0.07669729555071678 
136.112541615698 0.09373519377808608 
141.058196867719 0.04803012402736989 
142.066170377072 0.048332137320104905 
143.0741644706 0.09780100027295097 
144.081696180597 0.059876572346942804 
145.053142056808 0.4057633927828298 
145.061632898732 0.06887600751857925 
146.061002694625 0.1083939263962742 
147.068474965382 0.19502574791872038 
148.075850838054 0.047993137688828146 
154.06599428813 0.2694093336461894 
154.075309310747 0.04950122029833974 
155.073708029576 0.11419497820382755 
156.0812686153 0.04330286178944102 
157.088823529507 0.049090858924481964 
158.060703530838 0.0849811864496832 
159.068965133806 0.13393786158307458 
160.076504284503 0.8244843176328378 
160.084860314387 0.12152873977602514 
165.07135214649 0.04100403087241925 
166.065861299849 0.04990219827003356 
167.073866839008 0.3034033588247192 
167.083810375386 0.0718971323730111 
168.081717766235 0.6503925636936901 
168.090625391995 0.1330273409308107 
169.089593918934 0.6087010703463285 
169.097797826623 0.11456142115103218 
170.060883375009 0.09459339312715387 
171.068959239416 0.04376125751726809 
172.076875588803 0.2558044266399234 
172.085998811698 0.04266660327454512 
173.048006244529 0.16109910537298397 
173.084418179703 0.11030183542994795 
174.092710742415 0.17811190898533158 
180.081915645166 0.4737378754016449 
180.089842817079 0.08837901556595824 
181.089659372144 0.6531331328044424 
181.098387017255 0.12819870830571328 
182.061115698205 0.27289099770306174 
182.069728025899 0.05335023941927344 
182.09711796367 0.1676923420720969 
183.068934638854 0.17526735855290837 
183.104659774045 0.0980911902509302 
184.076947653329 0.20349509497758816 
185.084616902268 0.07045127893605217 
186.091952972794 0.093012192950112 
188.071944869728 0.14803941621784816 
188.107789003593 0.06105294085857104 
191.073991346113 0.06228833473229257 
192.08236447035 0.22651624035464926 
193.089521302102 0.2631551763885782 
193.100044355331 0.04560849937850638 
194.097795316397 0.4063030239182123 
194.10647957697 0.0843127758155864 
195.069271739581 0.2149643943783502 
195.080470193431 0.07864630685024843 
195.105109172892 0.16419266370730354 
195.115289123412 0.04050392860131669 
196.077086693734 0.5756519982314054 
196.085989324999 0.08874329223562806 
196.112091577316 0.07223639423788418 
197.084584817577 1.0 
197.093545975151 0.19549993466963012 
197.113279799515 0.06267141241067241 
198.092490118508 0.26065688831790373 
198.10141617166 0.05810896968876065 
199.10033076641 0.07981665539062203 
200.107865299984 0.04309236802182148 
204.081576522307 0.19931782780282678 
204.091162466479 0.04262392760710931 
205.090091398905 0.15537078348329675 
206.097410099315 0.2296706824891578 
206.106401621771 0.05533242896946986 
207.069142459806 0.06801606374602288 
207.105197179899 0.135070140646139 
208.077168905711 0.18874627941833397 
208.087739192689 0.04496812493629434 
208.113008663037 0.21168955281874893 
209.084906360408 0.248761288301212 
209.094189199434 0.061303579169348865 
210.092391234446 0.7315258141612071 
210.101182570997 0.14912700155493122 
210.125829355598 0.045689449749544114 
211.100397292807 0.38218973261978434 
211.110233997764 0.07684692832106879 
212.072275733672 0.05034539585073482 
212.108271270611 0.6280466128198481 
212.117896857838 0.12144835947802289 
214.124145292875 0.04468656586407224 
217.090008845575 0.06843201183562833 
218.098234569885 0.14906087308281588 
219.105547957873 0.049916096650638495 
220.076895696008 0.14558285749337063 
220.11279967925 0.13347792665805172 
221.0846720389 0.17389872720933516 
221.121445281806 0.04474150950323152 
222.092612109815 0.4551777795564057 
222.103142972533 0.09209968844368466 
222.128742487416 0.1750711394140972 
223.100610480753 0.2658664437453069 
223.109705537583 0.058465687189980034 
223.13692374623 0.09346492215196643 
224.071955172929 0.1031287432420692 
224.108171522607 0.5666454143439041 
224.117889237131 0.10434908718765414 
225.079441687968 0.13063269213798595 
226.087157172684 0.05006840876425724 
226.123579182095 0.07527783649530044 
232.077508234371 0.07375730349069401 
232.112588693013 0.04358279045278165 
233.085716495079 0.06547691284016544 
234.09303425937 0.23864454418442274 
234.103176305584 0.04320421635138208 
234.129062881469 0.05675934458019024 
235.100463219144 0.20077197010172154 
235.111524396673 0.044132557486734975 
235.136890484778 0.0581711760583919 
236.071028467883 0.04023250542766537 
236.108726305029 0.5484416141458379 
236.144373300599 0.04925565563757767 
237.079076070641 0.045829254460764496 
237.115820765501 0.20031602568794707 
237.127522567446 0.04727384233558466 
238.087556708822 0.1062616480172974 
238.123953417233 0.4316627229014073 
238.133891354102 0.05965544101648127 
239.095384520513 0.19649402802889496 
240.103835066461 0.2520640634395516 
246.091897133065 0.06355772776184994 
247.101092849099 0.05309034312239947 
248.108329858502 0.18941907961480395 
249.116313732505 0.08176957739117705 
250.087362056683 0.2093074456327047 
250.098543721372 0.04370136564416087 
250.123892941327 0.23660231454212988 
250.135224067929 0.04685148662506045 
251.132469601218 0.13284514558867225 
252.103121440773 0.11012222821939056 
252.140230332488 0.07473410083406247 
264.104094623807 0.10756630576482938 
264.139133668222 0.05962818012392476 
266.119112887136 0.053784293028485634 
266.156054408864 0.070103306355197 
278.118924536209 0.04469769368972475 
END IONS

BEGIN IONS
TITLE=sempervirine-chlorhydrate.mgf
PEPMASS=273.1381426
CHARGE=1+
RETENTION_TIME=178.229
PRECURSOR_MZ=273.1381426
SMILES=C1CCC2=CN3C=CC4=C5C=CC=CC5=NC4=C3C=C2C1
INCHI=InChI=1S/C19H16N2/c1-2-6-14-12-21-10-9-16-15-7-3-4-8-17(15)20-19(16)18(21)11-13(14)5-1/h3-4,7-12H,1-2,5-6H2
COMPOUND_NAME=sempervirine-chlorhydrate.mgf
IONMODE=positive
SKELETON=Sempervirinan
115.054148170666 0.04487347832531443 
140.04953025498 0.030219761333390317 
154.065217776112 0.04309430904807069 
167.060330118536 0.027312850040875043 
181.075748861477 0.03078959309552757 
182.083750666997 0.03414424753090181 
204.080612735484 0.02872093393337959 
205.076151877858 0.048345047208630046 
206.083896459307 0.18930356017543076 
206.093313643138 0.030642524777369687 
217.075954888938 0.07610442187046748 
217.088147104106 0.05170132027756838 
218.084023382235 0.03496570406467987 
218.09624974805 0.025374272637908944 
219.091980759911 0.04607967860120961 
229.076128972493 0.08385935893017415 
230.084088959348 0.7839883494757173 
230.093803409515 0.07234349041050549 
230.119051996104 0.0644742123483554 
231.101335466053 0.026796333158436037 
232.099700580074 0.12100668095550304 
242.083626483017 0.03144146593640225 
243.091811032642 0.5791885553513572 
243.101174448978 0.054182812839583414 
243.127513526094 0.08781079810456191 
245.107541310258 1.0 
245.117698269368 0.06128614986182507 
245.143439470505 0.06191044227798122 
246.125299874724 0.03204725318793518 
255.091551425975 0.03710521027232146 
256.099642954532 0.3743643907890657 
256.109096258013 0.054389907001317635 
257.107557826493 0.7068805566644508 
257.118109152152 0.06240534403692667 
257.129835890729 0.05419558003915638 
257.144322889665 0.044969450564839454 
269.107509080958 0.1972403207076884 
269.117515175254 0.033924231580995785 
271.123229328914 0.7983126199766662 
271.1336658569 0.05928988363115888 
271.145196972446 0.0643346279370697 
271.160702095772 0.08207600666731533 
273.138831124496 0.5208838284866777 
273.148830118231 0.05989441598700728 
273.176549256275 0.03307194826192401 
END IONS

BEGIN IONS
TITLE=Camptothecine.mgf
PEPMASS=349.1186218
CHARGE=1+
RETENTION_TIME=1632.444
PRECURSOR_MZ=349.1186218
SMILES=O=C1C2=C([C@@](O)(CC)C(OC2)=O)C=C(N1C3)C(C3=C4)=NC5=C4C=CC=C5
INCHI=InChI=1S/C20H16N2O4/c1-2-20(25)14-8-16-17-12(7-11-5-3-4-6-15(11)21-17)9-22(16)18(23)13(14)10-26-19(20)24/h3-8,25H,2,9-10H2,1H3/t20-/m0/s1
COMPOUND_NAME=Camptothecine.mgf
IONMODE=positive
SKELETON=Camptothecin
114.044036123891 0.04520174512296309 
115.051769444245 0.07267707902494108 
128.047793628697 0.07703640184289348 
140.04736211611 0.08304658694531264 
141.054055556705 0.058993069706440984 
142.061334691044 0.024813549196095033 
151.051552741761 0.060807076444324586 
152.054524752617 0.051010278529826314 
165.065918108811 0.035489183378809755 
166.063897485628 0.06103723612438874 
167.06956080936 0.09209167299195463 
168.066831385819 0.20210941409905425 
169.071354370302 0.06753329424532623 
177.055957874724 0.03292894416424639 
178.062909327092 0.07604326850481302 
179.068361717681 0.06800356236178424 
180.076521033569 0.07984669825018041 
181.074825648927 0.12330104785149788 
182.079427249638 0.038569005230419756 
190.062547862066 0.10154821838984682 
191.069958311739 0.19611092004785502 
192.075866325667 0.17035028207501765 
193.082501516867 0.07799766885993817 
194.08994008031 0.05649176551033837 
203.066436680677 0.040932668130194375 
204.077517468221 0.13285622229056732 
205.074575063221 0.4758745184069667 
206.082551743516 0.28439100733430395 
207.088864518483 0.10193071524487828 
216.069390750947 0.06614771529588459 
217.075868290441 0.1845268053331394 
218.081931788742 0.5705859211462583 
219.088905905145 1.0 
220.094887920524 0.4661671582968335 
221.102778991243 0.1954891732785495 
222.107570255691 0.03903937434948011 
231.090381764117 0.0545635500798678 
232.097970499128 0.04993338878376201 
233.102921802303 0.04788955062427183 
235.08612469404 0.054573726092052764 
243.089320865283 0.035088859564466675 
244.096359005865 0.03415294420060733 
245.102905754739 0.032788247539197846 
246.081261603398 0.05287122622714374 
247.08644147483 0.09541834520366417 
248.091794269013 0.14133324445104328 
249.100119192929 0.17543063722036797 
250.103662736726 0.0430345575353749 
259.119983102108 0.0255483305027354 
261.104366790959 0.032833597707644935 
262.107668267138 0.028615299773198655 
277.130672459254 0.04398342648298333 
305.126502001885 0.1755490627716023 
306.129141767629 0.06008096873615948 
END IONS

